37500
4531 21398 8775
1427 23593 -2252
19482 3459 29518
29511 9098 -1643
35467 989 27332
18432 29121 -151
34151 12975 -1610
6270 25628 -779
850 24605 -310
2790 1352 -2949
35520 3298 16401
25152 29721 -1526
26218 10814 8504
14629 3958 31969
16646 32820 1602
14327 30436 -976
14634 31471 27278
13012 24900 -2271
5090 36847 26015
15243 5169 -2200
17589 35176 21677
9907 21326 -3522
20248 6070 -1188
6932 25789 3854
35097 20617 4241
5679 8764 37266
4555 5372 -2162
17758 5160 9769
2740 31363 18355
23283 36977 37240
20856 32822 18924
7454 22749 -558
31975 31698 -2519
24942 23429 -1022
3853 21299 -1126
33900 19600 29636
22661 13683 -1587
31094 35211 28772
8283 7048 -1478
23576 21426 -3257
35010 12936 16520
17297 33066 30847
27196 7723 31369
2503 25112 24059
36223 31672 -1045
30723 21264 19014
7749 27618 29899
25220 2656 -2358
5744 2215 -1228
17630 27834 8441
14313 24713 31593
26572 23476 34301
25281 7513 -3057
7345 9966 26797
25667 12644 -834
32995 10006 24837
5911 33076 10601
35488 7542 25530
30522 24531 -2254
26558 12442 6249
10430 1461 -213
9828 13878 23828
14670 22910 35996
7282 12448 -2493
16326 14609 5743
15155 23096 -1476
30700 28479 -2982
27809 10845 31378
11450 23518 -3017
21302 8519 15468
23361 21689 -2235
34071 36334 29118
23414 32936 -416
15898 11364 33975
20629 28146 21101
23360 12327 -3239
23904 28734 5007
7111 20305 -2293
30803 17216 -818
36563 22821 9573
22895 33943 4292
9887 9694 -1534
28390 34367 -3430
22566 36605 662
18437 26940 9741
5064 21803 20155
26733 1060 -452
3776 21080 15957
17930 4258 -2331
25526 27901 21654
34456 17507 15746
31865 14813 -1366
17866 1061 17042
33009 13085 13976
6057 25062 27004
32679 17536 -482
36251 16133 18768
25965 9257 -1558
4654 4349 -1242
19473 5428 -3550
4858 14233 17380
30490 34381 -3193
18799 8501 22623
34518 23539 -244
11398 26475 -1961
15448 13928 -3043
32196 9815 -2954
17845 13569 -927
31963 33544 -763
15571 24247 -2646
19318 9407 -20
24655 32940 -638
36114 17565 4253
7167 5066 20009
20256 16329 17670
30145 26334 -1699
21844 12995 23519
27636 33608 -968
32633 32102 -415
5365 26734 31951
37426 31155 5745
11244 32463 -1998
1061 37345 -2299
6082 15601 -1259
23936 24516 -2896
22855 31677 10659
16806 21599 33632
14826 8779 3288
28115 32086 -3396
19779 21215 -745
33500 1348 30971
34135 27013 17913
17248 16497 -1403
34792 22826 14857
32523 8986 -1644
24865 30866 32063
33174 9100 -2310
7481 23402 4328
33002 14620 9230
28312 4421 -1335
22137 22393 3295
13793 8809 8094
5546 30460 -137
11881 30620 25603
4648 10799 19342
17168 36480 36759
11810 25362 21466
28204 5702 -2818
29021 24090 -3685
2928 30620 17595
17412 35208 -3561
6973 31271 -2076
9826 33024 -3715
28248 21225 -2290
12406 4837 3278
17301 3382 34756
3620 22309 22974
16206 17924 19139
15205 6152 12867
20101 20943 19612
34282 106 12561
5768 36582 -2351
23813 15024 -1533
11570 35229 21646
21299 2724 33114
22524 3578 11869
24571 15280 10808
16333 17508 17505
24165 22888 17369
4961 28615 1061
33516 23055 -3105
20026 22422 20135
31762 21328 29976
1321 22734 -2423
9332 1184 -2649
26660 1438 28749
30505 34568 5977
21565 29122 4249
8959 31887 11007
5849 36722 -1411
4978 1361 36074
17837 20258 34412
37379 16369 -2980
25915 25418 25673
31404 33703 -1056
12547 14366 12285
17874 11226 -3
21655 26487 -392
35368 8567 25762
31489 15608 20325
13558 11399 -1486
29373 33891 158
20610 32366 -1598
23958 18643 -3724
232 28793 3565
17600 6554 -890
31300 12653 3818
14129 32447 30112
12513 10831 -3263
3192 8986 -1726
9465 22118 14078
22029 25329 29956
26505 30744 3827
4977 14020 12680
8984 25518 26019
13142 31564 -2575
8309 23141 3830
36478 23100 -657
17006 2977 -1177
28847 22817 15934
8147 30732 36286
8324 23717 26720
4629 18875 7089
16719 30998 9663
13856 10372 -950
6060 18103 -595
15061 496 6744
12533 12177 -3717
8313 14429 36797
3495 8238 -224
128 6390 -3362
25868 27463 -507
25387 16846 34723
33370 23378 13504
36695 7173 -3025
7261 33615 -613
5119 19025 31851
32746 862 6284
10228 18918 -2065
9734 21127 20897
18138 32407 32035
8271 29419 29068
21383 8486 -2195
13831 9068 -1170
22976 28548 22294
27796 17379 -1764
30454 3193 34962
37398 28296 20476
32586 1185 -545
12501 6384 -2937
16415 31202 18368
29897 29781 -1337
11574 20965 -3585
17331 855 22425
33676 4995 12608
36232 32189 6732
5132 6989 -1771
10293 13689 29898
19463 1802 -3040
34194 33656 -403
35939 16891 12010
23939 24297 -1387
25881 21622 5070
15299 35111 29860
25949 21110 26461
6445 18745 6460
34967 31045 -3644
20278 36558 -2073
33242 27658 -744
28369 20295 16296
2940 6588 -1782
32573 5222 -1787
10323 28261 36263
1891 2226 19262
4442 8071 -1985
12948 30467 31750
13353 20784 -704
36458 10492 16598
17410 9306 -2936
2979 30695 1134
29955 17902 21766
10413 2354 30876
15544 5868 -891
22725 18046 35505
31113 11441 32421
8355 6118 8989
31805 5206 37474
14949 24705 14981
24799 18133 24226
28151 23876 -3646
4398 34338 -2139
7966 32717 35200
18008 9027 -721
26502 36451 -3490
19821 26277 -1175
13741 11379 -943
35575 21770 18220
12895 7056 -374
29909 31834 -286
31296 27922 -2410
27257 22070 -1113
12336 3133 -1768
17265 18909 -2477
32567 7119 -1325
8162 24993 -194
17513 29871 -3453
21674 1836 -404
29856 35855 -330
27323 21425 -1818
12951 21545 36724
5827 1361 35494
28181 11031 -3344
29515 23708 8767
34124 6828 6130
30177 31749 9868
31425 7700 -2563
13369 16261 14266
10411 18229 24413
16932 13385 29961
13013 29503 -654
21884 4981 -1763
37000 7183 -3246
855 32606 -1932
8371 4822 29844
9309 9762 16317
24712 23517 29739
28999 4062 23630
15297 16458 -1861
18750 4361 12734
35576 13108 31265
18156 19586 36761
19195 19939 22853
17385 31239 -1514
24343 8952 -2680
32070 15848 -1507
12993 31309 -2330
11490 34010 -2119
22823 35739 26486
6632 29995 29158
20279 16421 -687
19679 1446 18858
19905 30424 20182
19227 29856 -547
30454 12986 16799
1081 156 5902
12255 33908 5898
9403 314 -2925
19189 3170 1267
30588 20978 3984
18575 25677 25316
28722 31682 -1149
6530 34094 24227
3692 26121 -1745
26147 34163 24769
27929 26063 -2370
1484 21065 20520
9947 37237 37411
2030 12270 24503
8097 10651 2066
2972 1999 13667
17873 13086 -3261
12321 21794 -861
7465 29468 29334
10013 14545 -2819
7713 29060 18147
15069 23264 1970
16749 34799 -1963
33051 33549 21993
33114 14543 -1337
11086 9868 -3290
20174 33888 8776
22364 3386 29926
12085 4283 20539
33488 20378 -3666
19197 27181 35301
23105 5143 -1805
14728 34660 -3619
17695 12944 -811
9306 20234 -227
22662 2480 -1755
36903 20956 33122
28686 28187 19342
2179 3331 -765
24782 11680 14556
27689 13511 27872
30952 30359 25736
30741 15054 -2630
1586 3225 11521
13611 29836 -1398
10077 19162 10272
8465 17476 -523
7958 4438 10796
37211 35089 -2657
19929 35940 -2924
36252 6494 36366
7449 32198 -1772
1547 23270 -2279
26811 1302 11517
5576 19348 -3626
33023 21513 13165
37265 35235 5387
32263 36213 -1065
9519 12210 29547
28857 23178 -846
15929 9931 -3308
5569 8097 -2690
13643 13247 -3077
22169 29040 -3558
22074 2067 36500
37005 22889 -2874
15493 20105 7956
19207 4049 -420
16466 6774 -390
17304 34441 -3747
18702 1881 -1521
23273 24376 -2643
29060 14048 5037
7258 7023 29429
6398 18723 -2206
29894 37310 8078
18191 1436 19492
10391 28340 10277
27552 24126 -2729
2330 1123 -887
16505 26168 -3233
6330 6950 -2401
2901 14835 31161
34510 4358 -34
12406 33955 27226
3888 36079 33006
2040 30719 5275
416 22385 -3547
5884 4878 688
6419 26631 -1033
10741 7027 7418
11276 16113 -2155
31346 11672 -2778
18803 12845 -3026
18883 27564 10884
23393 11500 13849
26619 8042 5303
15647 32425 16177
5422 5487 29567
12412 20747 26456
14961 29119 -357
33076 6561 29224
13050 7004 -842
11208 23642 31735
4476 12384 26713
26034 11861 -1927
36485 35669 -2085
33378 7688 -564
670 32827 13888
13265 32879 -1490
16672 4844 35273
13202 29619 -1030
3849 25867 27077
9551 24347 -2298
29286 31082 37073
6359 3327 12686
19629 28084 8158
24348 4744 36706
34588 33497 -222
15468 13332 7591
28796 4962 17404
14959 4599 19090
16909 10174 2072
6599 5006 -3312
27969 34220 30166
36731 18757 -12
29026 5497 -3394
28236 16577 11401
2315 7012 -1976
8670 4557 13857
37029 28519 12258
378 10978 -791
21891 24077 19785
21231 22838 34738
35640 3162 -1519
23261 35743 -1939
32541 4820 -390
21440 23193 32039
1675 4966 -314
32091 28840 -910
7402 10805 -3720
15673 28123 4950
18107 10889 -3171
2047 30924 -838
10412 30387 -2858
14910 18559 31779
6413 24752 -1467
32045 13460 -1423
977 24299 17703
16340 3770 21109
11920 7477 -1802
4968 6788 8490
7143 25965 -3203
16580 11442 638
23413 3448 6787
15181 22826 12794
834 5865 -2826
18991 30430 19203
31473 20239 -2571
18430 36437 25668
17047 36818 29705
16275 1357 19267
23822 32840 -1013
12128 34851 21806
19192 3919 25144
33656 3381 52
34288 3949 -3640
6330 4655 -3121
9464 31922 -107
29465 32534 -2336
34389 34489 -2190
193 29348 -2532
23489 33090 679
15739 20398 242
3097 7404 -1761
143 15339 -3179
11465 21358 26085
36846 18521 18238
22346 34310 -1200
31875 35295 1855
18119 33495 5874
26747 29148 11919
36461 18742 9781
35248 17663 12171
14982 29730 8771
2306 17558 23603
2563 31120 -567
2196 31762 31727
11943 13645 -1944
17695 20424 4795
31680 20014 1615
26208 25338 -3419
24144 19969 -824
14968 10161 22507
8582 29853 -2588
207 34102 -638
25495 29829 -71
22827 26761 -3531
23271 20311 4906
8521 19388 -1397
19763 26434 -1844
13004 24541 -3121
8814 25138 18547
36054 27947 -2891
29100 30907 -564
10307 17024 22014
26290 29457 -1253
2532 7156 -1003
6565 26119 33984
33689 23642 -3258
3653 34145 23462
13825 26200 -3573
33498 9742 -1745
7400 29421 5043
5693 1736 25225
5165 29250 27501
21645 3772 36164
30613 14577 10430
20035 14824 -243
26045 10077 17619
19953 28147 -1262
6353 37343 -1727
924 34720 17950
5783 37315 -1048
21291 11173 -690
7601 26738 17937
32127 35714 24701
487 33323 16740
17223 15190 -1990
19020 18858 -808
14231 2427 35006
897 9123 -1517
37079 15830 22459
2356 133 20115
3730 4666 -2809
29449 7047 -1487
16529 17530 -2603
35647 13942 8514
439 14567 25899
13192 17808 9012
3143 6844 35733
15267 1708 -2715
25058 9941 -1890
36146 10515 18444
36805 6408 -3416
21407 6322 -2369
12347 742 -1938
22523 25124 26671
13482 12192 27881
9664 31929 17730
22637 789 -3203
10206 11579 34612
4625 5097 26796
15768 869 -1168
25251 36983 22316
10026 3724 29842
30789 29614 -3211
9870 16997 4608
23004 13007 5162
21275 18540 28821
26388 5292 -2738
23749 4349 28053
9507 1501 -1824
289 5290 -2845
7728 34365 -2282
886 16768 18849
4703 422 9790
18349 374 4992
2065 4307 -299
35110 21084 -2163
19665 36272 -44
26060 23819 7549
16594 2155 7261
36099 25835 15767
25132 12984 -3707
35885 24934 -2850
6435 36485 -2257
24825 8801 -837
35106 16105 24291
2843 9148 -515
20922 24436 -3331
12842 29487 34956
16882 21385 24666
15775 35587 -1610
4478 29600 -2201
10633 1255 -3138
12602 27712 30083
14121 3699 4419
37441 7649 7809
21515 37140 25918
36920 25970 -3040
22658 8393 8032
35204 29679 19866
34560 10717 11732
7237 27754 30267
26543 6422 -456
28892 31044 7167
17528 17438 6809
24813 1839 18256
12466 8578 18102
11476 25203 30928
24216 4443 771
18431 8467 13208
30349 32227 -387
5872 32714 10024
28271 6463 14021
29550 21166 18745
30562 3515 12185
23272 34340 2713
25902 18746 6439
28571 13636 -3555
11159 12199 30854
29198 23490 30115
11127 4387 5253
28362 6256 -804
9065 1796 -1863
4582 8386 5791
32924 22541 22451
28198 32111 3267
8663 29050 1079
21242 2388 70
10356 26224 2279
1282 11636 -2560
14824 32088 30737
31759 12691 -1353
24558 9465 5457
20739 27647 1945
317 7257 -2443
15998 1675 -1247
12580 12399 -1936
29923 20994 -3040
18804 15694 16188
32079 34381 3053
9597 7983 -941
5856 3557 -1751
16548 12892 25179
34372 31456 29438
25034 27698 25050
25741 33664 -3727
18568 12485 5546
138 25363 15522
10035 31287 27718
24119 20196 27999
35261 9993 -1124
31937 4 7867
11703 35702 -2998
3248 9323 18375
1406 29868 -242
1334 34378 13919
593 10380 26503
23221 33843 -454
25868 5328 -3145
643 757 -796
14986 13244 16718
24425 17537 22126
24931 26713 6086
3340 18211 19818
19245 9790 -1254
17518 20670 16310
22133 24596 31323
30760 31638 10373
15066 18543 31297
37344 3215 -3679
71 3718 22362
37298 31303 12210
630 36249 20322
9358 32405 -1338
779 4890 -1303
30787 23564 30921
25932 29301 35180
30133 31937 18707
27352 10839 -1313
23896 21122 -3139
22649 29796 168
5390 3561 28640
23776 18893 -1382
10246 31590 21586
9067 7616 -2280
23438 5994 -1412
20405 7152 421
27927 19754 -3397
5526 13209 -2935
11909 22647 29385
26291 7483 22440
7376 6952 22179
13761 2197 23111
16937 12 -1139
13817 33233 17674
8736 26923 1659
1459 29373 -1034
25672 27271 8544
25195 4855 17009
25288 23448 -2760
23821 32651 -2880
32184 18608 -3104
35975 36800 7539
6883 6890 24254
22778 11562 -1297
2030 29610 17256
7722 23970 -502
3810 23663 20122
15711 29762 19040
8509 11826 21015
36477 7884 -3161
33237 27960 5143
28568 3717 -1647
28434 36968 -1304
31137 19812 16293
23291 1001 33347
24404 8268 15247
26154 36071 35497
7522 36141 22119
24108 101 7047
19375 21782 18621
36606 3879 2783
20933 26483 -1695
8380 36520 1050
30848 35189 14824
9831 8731 107
4612 7406 7275
33787 6235 -368
17334 17254 -1643
31619 25483 31498
21125 7745 -3121
35053 15585 191
9415 23006 30067
13156 21374 22360
21324 8036 21214
31386 24530 32784
35250 23583 30686
11799 22778 19771
5764 34634 -762
8827 27951 33001
34617 21534 30918
16222 3124 -1754
29049 12880 15280
29016 36714 -3342
30412 19142 -829
28093 7841 34011
1194 31957 -2856
11036 15947 -704
13488 10871 27824
3105 23888 -109
18126 29949 29848
23721 27441 2292
26063 21296 29120
7478 22741 26074
19273 12102 -1747
5852 2540 13486
1226 34127 -2337
27418 36222 26457
12432 28874 -2170
16951 32126 18136
35100 29249 -2944
43 15973 -2701
18645 2466 22387
17700 22861 -1761
1331 29733 -2
20392 2588 25677
31892 36819 -2173
20465 20412 -2082
24218 3861 27864
3260 15171 24392
6536 20047 -1430
29141 33637 -3255
28678 1320 -336
11277 7254 -3113
27171 34077 28373
19459 16374 6727
37160 4638 -3017
35315 24405 15802
25289 8778 -1451
30643 31530 -3478
24623 24407 -2839
19671 23133 17375
25858 12584 -1349
120 19552 -3145
33640 5509 13574
24202 8556 11852
36451 28237 -2332
2840 16569 33482
11868 9091 -40
8470 22202 2066
29703 34605 21078
26138 24985 -3489
20893 3771 -1454
9966 9601 -863
31900 29395 -3153
18096 26922 33269
34018 26056 35483
28049 4760 6051
19642 23035 18167
603 12854 -332
34809 4499 5547
23549 22911 24620
10460 19666 -1780
15316 13633 20088
30082 18258 -3024
1099 16962 -2049
2282 6166 24467
31325 15808 -2164
25642 2740 36914
2947 32859 36683
31266 11894 5193
4242 25387 32849
11807 35231 -2899
30691 28983 -1874
10861 25824 -84
32496 4863 28972
21433 2314 14716
24632 6176 -1985
15268 14371 -272
2277 7521 -3289
23146 2294 27966
22031 5875 6474
22660 8419 26520
628 25269 1202
9741 36522 10719
31257 35057 -1629
31412 26911 -1132
3042 19026 -1941
25517 3275 -144
23180 624 -1644
8334 13923 -54
16285 9895 6286
6190 16911 -1262
18324 8521 34371
10967 2631 -1553
13716 6664 5888
9502 13467 2121
9242 6998 5872
28179 31642 -1924
7137 20035 4247
16653 19328 -548
31409 31553 5815
36816 6366 34454
1444 9587 2754
26451 4822 -1630
3943 15296 -3210
7206 7739 15906
15955 28217 -432
21987 6837 32081
35416 9755 -168
29699 34493 -3353
30019 16844 14403
29788 9459 -766
24700 27719 -3710
36691 30566 31379
12057 28152 20589
2872 17085 -3364
2818 24803 -1034
4231 34844 11675
5117 10445 -776
18615 18826 14213
26247 17238 5501
15895 911 -2047
18442 13218 21840
32891 34205 -1098
22328 11418 10089
25984 15613 31850
2352 3349 9252
29502 23204 27056
27661 18323 17839
17630 14402 -3085
36658 30091 24467
20116 6308 -1268
28743 11050 -1198
14964 33894 -444
28357 13737 -626
1439 2013 -3113
8635 18961 -673
4539 2605 -2840
28107 5795 -88
4872 19302 -2345
4357 33565 -3252
5385 35797 20154
2788 14695 -2529
12323 24784 22681
19398 21138 -1662
12386 31929 -2248
1934 33564 4942
23949 7728 3681
14075 30402 15505
33712 29773 -3717
28263 6306 7351
28969 5963 -2245
2115 8315 -1651
35686 25730 31293
9315 22402 24158
7459 9924 -3692
19314 33525 36245
23806 11475 -46
34321 11037 32568
1755 35240 -3013
11480 36317 -2685
30674 13053 -2531
29426 2780 22069
6402 28229 11256
31847 17629 8244
22345 36464 -3407
36022 29871 32379
847 365 29029
36201 28750 -1010
24768 1917 31421
31006 33626 6826
18754 6942 -2822
2636 16867 -2108
20723 33107 -977
16479 13940 26598
27617 25600 -3706
13743 22063 -173
12132 34760 787
6996 18929 -566
7120 28190 -1710
37322 37148 17337
10931 6925 -179
5631 7358 -367
18657 430 -3415
35533 5173 14532
33976 13942 14857
9733 17250 -1265
35654 1332 -1756
9148 4248 -1919
16685 19872 -608
22738 23359 6146
31826 32342 17620
16905 21907 -3536
20055 11926 12027
703 8904 -2362
27524 5810 28248
1437 26153 9672
5631 6374 -429
7176 7219 420
9325 20131 -311
31916 22129 -494
30635 29163 13920
15381 6482 20906
13789 21182 27272
25384 12355 36081
14927 9563 -349
37433 20486 -965
14445 17237 -1381
34377 3049 6377
2758 36990 31207
973 36333 -2140
22807 9288 -1631
14791 8911 -301
13721 31019 -1533
28712 24016 -145
17688 21898 8033
8214 2041 -3282
33278 36240 21783
30464 18502 -3089
36066 1948 -282
8623 4224 12901
30786 32431 -2914
29996 11927 29487
9957 32789 35490
30645 271 28830
29128 33759 -686
22594 6007 -1168
20603 34681 -2646
3362 34595 10977
9771 2749 22097
10216 8881 27962
11932 3214 -1925
20742 21450 20688
4378 2913 -1742
10597 2682 17042
3163 35476 -64
2580 24613 19227
29863 32215 19841
27978 19943 18367
11392 22583 -1865
21860 33592 679
34728 23063 3899
13843 35171 11324
30467 32503 4558
7543 26145 36287
24079 14959 30136
25379 32360 24449
29255 9136 -1098
5154 9891 -1054
34849 22827 -3332
37208 34495 14451
16020 11501 37463
18115 1057 -3178
23497 1451 21597
1421 29563 14941
29221 35166 -989
28761 12137 -2858
24425 29296 34146
10975 24151 -514
6887 22729 18088
16105 33548 -3408
2659 3632 16170
21078 29849 -2123
6050 2964 -1677
17478 11465 5534
35500 29609 -3048
7718 4783 6316
17300 24929 3612
5735 28942 -1208
31908 4881 -1062
37193 15370 -261
31896 7007 -1265
35427 36488 -1580
10833 1123 -3000
621 24944 -1655
11643 5931 -20
27104 15089 -735
14300 14102 566
28015 32795 28929
13227 33830 9029
17286 23768 2274
17361 26005 36059
7416 26603 22720
6469 14515 30060
22218 33644 30913
30248 26610 17570
27458 35853 -2889
36184 9407 26326
20557 22933 1091
11152 33253 5226
22425 16196 37414
18842 31709 11515
15332 12219 -297
24736 8027 -459
32607 12979 34027
15084 21544 -2949
32640 26529 -772
25988 28869 33973
18782 23043 -3533
10464 13106 -1433
31833 23047 33640
26263 565 17011
6243 7890 -3556
30559 35285 32336
17383 30472 -3406
18653 10721 929
28918 11948 -2976
29447 2125 36833
28476 11110 26245
11965 185 -360
5080 20348 14632
27928 21454 6143
32909 1434 -3564
29149 26174 -404
27891 17258 22515
5653 34268 35348
12049 21496 3373
17845 1935 14351
35105 31146 -201
1454 8311 13983
5570 3705 35917
30418 3674 -3535
16959 29451 12052
3267 21502 -3552
8362 10332 -409
11054 3286 983
12242 3358 -1197
5453 20100 2881
15039 33025 32847
29724 18886 -2638
2832 372 23701
28888 29894 -775
26879 8593 33345
10473 20199 -874
13012 605 -1246
8736 27385 30425
23392 7951 8389
20245 4439 17098
18048 15660 20422
11317 31041 30624
37177 24525 -1250
30038 32919 19682
31041 12151 11709
25238 22991 17639
5431 7188 -1518
5227 28131 -1473
16611 37202 29886
7829 2568 24867
34010 13960 21624
28676 5960 -3149
785 647 -376
30630 19700 -143
34711 14931 -3327
2403 19256 30476
13145 14254 -3627
8963 17331 -3241
18552 20694 6252
27068 13286 -1142
9445 20061 31223
18424 8973 -1656
12901 18048 3568
28128 27288 -1240
22889 24106 33489
25051 14997 28641
29859 2161 2334
5142 36528 -2890
3435 19905 1249
32245 4925 22307
23467 10362 -3617
18468 26682 11838
31549 30718 -3552
27425 33345 -1339
22433 12079 34854
32937 2386 -2793
19496 25369 14784
2708 27383 30230
35901 30942 -1389
5588 34940 32393
18019 10932 -1252
15042 33954 -3419
29987 10205 5716
37414 20038 22863
1512 21767 -696
526 2564 8161
33661 3529 30127
22324 30908 1702
17709 29389 18718
20527 34283 12088
27094 4305 15872
23836 37278 8865
28237 10812 10517
9741 18424 -3030
7837 13945 567
25806 22393 3126
6288 32421 -1357
2767 9653 -1563
728 28568 36051
2000 15700 24140
5111 3504 13930
5068 17165 -2432
28736 13418 -1303
18974 20017 -1823
26339 11085 -247
2001 25324 5800
1126 28674 -524
35444 26097 7826
14637 21654 -3149
15642 12656 37340
11764 16530 22660
8185 34004 -3586
37048 14425 -2655
30195 35167 32637
6525 7942 33620
29453 2074 -2133
17415 3620 -1765
9939 28767 15851
18459 28520 -1064
15081 582 -1444
6094 19678 27059
34919 26691 -842
10816 9952 33031
9193 34394 8621
9819 17210 -342
13267 22691 -2528
24211 17140 -2040
21058 35036 34282
15613 33022 816
31375 17903 22828
22305 21246 -3311
33702 21793 -1118
20168 18655 -3083
1028 25803 30865
17614 27154 2001
824 34208 -2591
37493 26200 -629
33080 11828 36051
12215 31708 29301
23827 4173 -2597
14083 51 8606
6811 27764 32578
7116 13312 -1820
4677 32523 -2646
1529 15353 15388
21594 9173 24444
17706 25794 13239
26312 10354 -1990
807 30308 4965
31927 31870 -3111
20495 20176 29902
34184 1599 15980
37316 11197 10771
3408 18822 -437
2308 2110 5591
18859 9587 7031
9542 28305 31309
11701 19113 4782
34473 14526 -1735
4899 23063 -3473
16835 34433 -1846
10146 34748 1701
16075 11088 37093
11044 29623 20584
2078 27168 5133
3215 31953 -3026
29788 27502 20208
17811 12079 -1788
23424 31448 15851
22413 20712 -3440
24013 5835 23519
28370 17917 30268
2852 6347 20154
1975 6824 -3613
25692 17875 -966
12750 29061 22897
12549 10219 -2629
388 3734 -3496
29445 22110 22150
7304 36535 14301
14327 31111 -1450
4195 3982 -497
14635 13909 28930
13215 2022 -2377
3813 30565 32313
17794 3578 25592
802 35213 7604
35722 11422 20407
30491 17921 -3685
18470 7946 24738
15933 5457 -1340
26007 842 -3625
4009 12097 34102
15436 27010 -3015
1276 29203 3259
21477 7928 -2285
3820 19462 12740
6308 36644 24025
22531 35037 2272
1479 35051 -3224
4289 9411 30664
21410 16176 -664
19315 6916 -82
23846 21719 20170
14201 21610 -527
36960 13993 -181
34769 8158 5719
28620 34879 20458
4453 6284 -768
18235 4029 -2114
15662 27128 17361
8214 34386 2251
1164 17064 -638
269 15349 -465
34518 21352 -2047
34026 4444 -104
33258 24149 -3186
24359 21844 -841
25506 23677 -924
36048 28908 -1095
9937 29560 -642
2001 30904 30454
1606 9146 1131
13715 18184 -2702
17576 20172 26613
31760 26373 -2179
24835 15132 36582
13135 12416 3160
10766 7302 -1422
28464 413 15423
12899 30487 -36
7938 22766 18066
2769 2360 35183
33751 16717 -2743
19719 9622 14231
31095 6409 1888
2252 16165 -3262
30391 8670 -1727
7942 31786 8552
32924 18689 -1056
32482 2761 28639
20361 15645 3710
4093 30126 -1902
7949 24261 -606
2467 14514 37035
19611 24852 -143
690 34911 -720
10359 22060 5480
32049 12928 -2229
10984 36384 -762
21208 32897 -2625
26033 2201 -295
31012 3003 -1592
20284 12853 18852
1721 26357 29742
12944 21611 -312
33958 18675 -968
11218 18340 14981
12288 6628 -2338
20981 1356 -840
22792 12289 17157
12954 14569 -1348
27479 722 -547
25170 8150 -3165
19705 34967 -707
14351 16656 -1104
31956 36563 -1309
26468 25499 30841
21419 5115 31013
13062 13948 20592
23876 21884 -3523
15228 30777 31171
16629 32606 -2313
22023 34960 -2333
20409 19081 19457
23775 29858 -3544
20367 17960 4119
14510 31787 -846
30172 2211 -3512
5703 14030 8952
18476 3608 25982
23014 16878 -2936
753 3955 11565
160 6555 -422
30446 4051 15763
4604 29515 -2850
25625 18850 -3063
18301 12081 31817
10416 24457 -2965
15375 12111 4285
5184 11353 -1383
77 18539 -3099
1292 13237 -3216
1472 12530 -1700
4555 16780 11405
11826 8746 7487
14402 37238 -1251
22720 19213 33101
35302 1566 13325
31872 9995 5217
23908 5705 -1074
18698 4119 9784
23899 22145 6603
6603 33292 17278
15109 17079 17571
23618 17885 4535
3207 19455 31876
13921 1225 -2038
16942 20225 5671
36625 28120 -3037
25443 18361 28474
20727 12864 17503
28234 977 25670
31835 23956 35330
8168 31558 18055
22726 13936 7918
23175 32075 22827
26689 35079 -1579
31728 4300 7423
12480 11827 -3105
1135 28733 -531
23479 33651 -936
34377 9493 -786
34504 4668 8890
28099 26985 -3670
27102 1511 -1020
13915 8941 20289
893 20672 12210
5128 1281 22062
27030 10080 21413
23624 31597 -314
3662 19403 21863
31272 800 -3062
35563 15313 11819
37331 33643 6909
958 36340 13495
7453 7241 -1043
12006 6486 -1403
29269 24885 -1761
14993 3280 13523
544 4644 36622
17591 18893 25079
36197 5910 34116
6965 21945 17473
27789 12066 -1540
12393 36740 -2904
32071 25109 8322
7065 26069 -1238
36560 36996 21339
30072 25110 -1990
21042 16640 -3396
18897 11099 -1287
5545 8785 -202
32403 23638 -104
12093 7266 -3540
16710 10039 220
3193 34986 -3020
32076 15785 22463
15530 7642 25275
22480 13392 -3193
25894 30567 -2512
11782 13022 21406
3773 2827 2346
35542 16537 8358
459 4876 35840
1872 32328 32735
15918 16221 8729
4630 10902 -2143
9362 34496 -2233
30135 26250 34813
19417 18072 -2289
3881 28358 16634
5697 7998 1757
12782 12239 12190
10176 17498 20108
19229 21921 29043
7902 1477 25796
36454 33278 -2789
27589 7507 34200
22260 22929 33961
37250 3581 12784
29895 35996 7203
35756 2026 -1479
20055 14076 4001
28886 13040 -3583
20075 1349 -3426
24952 35282 27725
10229 9353 25230
8404 19425 -83
37251 14881 -1669
10438 36121 -2944
21860 33412 -356
32045 34322 -993
6623 2709 -906
28853 37343 37442
26031 26653 14157
16259 28229 30600
21195 25367 -3464
26851 26980 5399
21526 5004 1435
31729 34447 19892
12512 18460 10612
16584 31065 -2110
13066 20178 -1722
30510 27159 -2182
34604 14340 -612
36795 6912 -676
15804 14776 1730
6500 14320 -1731
4646 7051 29882
22307 20732 31659
19225 6799 27328
5079 6384 35803
20086 11487 -3270
21959 21968 25686
21520 2342 -2066
30554 2181 -1252
29567 14903 -3649
11590 19086 -328
35860 24244 -3738
15662 6412 4942
17857 9501 22008
34744 24248 31598
20548 906 -757
729 15126 -1229
5289 33122 17470
7000 30532 -2960
18995 8079 -2007
16983 35535 19058
1030 18034 33026
37114 27719 30436
7442 30376 20706
10072 17824 3491
37192 14203 -1315
15695 5057 -2078
12818 3189 -1169
8820 24291 -288
26513 7630 9836
1119 29287 -2380
12204 21985 11422
790 29417 36626
8755 16256 -1998
17269 34249 -1581
21968 9980 -316
15867 16051 9389
35025 5596 -3219
30345 35126 -2555
2322 18831 23961
7759 8727 -2676
27730 8270 12344
18399 26866 20630
807 10199 29817
9740 8914 -1779
16416 16202 24300
32904 31863 -441
22054 12048 -1603
27750 24267 -2807
24368 7155 29978
24393 17089 -3579
34728 10639 34864
19107 10408 -2874
14540 31385 -2954
21564 13562 -3605
19180 33881 -2505
3750 21508 -2358
25141 495 3161
16274 13288 9949
18614 4257 -2019
36798 1687 -1550
30673 4524 4117
26039 31382 288
23537 21677 17863
24945 30812 17096
16253 31111 19598
29681 30562 -1177
6894 24753 6428
23171 36127 7811
29624 34917 -1556
36923 37077 16425
5069 37273 13073
35269 14065 10036
27033 20054 -2743
31542 35266 -3462
24603 3222 32706
34094 21618 -1045
22843 30953 22812
2368 15874 -455
29080 20261 -3632
12460 13368 -510
17644 6143 -3636
12023 25465 -2557
31410 13579 -3441
13979 35277 28398
15344 10955 -1590
20883 14405 -2429
7715 18234 26824
14670 20944 27171
8176 27004 33252
34901 129 -1676
632 15390 23952
17761 7945 -3688
33763 32867 -2084
24230 19877 -378
24060 9792 -477
15986 27421 -899
2539 32895 -704
6904 33216 -1236
24641 6189 10486
17420 26920 10505
36534 34417 -1179
830 21626 -255
36816 19620 16556
29793 13618 -229
19115 35949 35513
2286 1986 846
31823 32733 28409
12748 1874 27468
11016 1134 17379
4123 29772 29563
1854 5759 35248
9791 30271 18682
13527 12238 -987
27988 19178 -1601
682 23230 30338
36379 4337 24548
12842 17581 2353
3451 31801 -2493
10050 25719 -2773
8551 2344 29
28438 33785 -3439
11532 13276 -563
23280 1660 20671
36116 36491 9465
15464 12352 -65
21470 23260 -2880
30314 18030 -2440
27529 12288 18690
8910 1977 11584
428 36244 -1234
1701 35051 8705
3970 19597 9777
6747 9006 21668
29233 36789 36266
20579 11325 23057
27031 1889 -2704
26593 27457 -408
31837 7832 17026
21955 7635 -1493
9572 5491 -684
22972 18414 6874
15875 10977 -1107
22123 20037 33447
1466 32279 2445
37493 1170 29327
4006 4555 -1242
33194 36208 -1545
34666 14622 20658
18851 9069 -3083
28862 6218 35224
35322 532 -3012
17551 30779 -2927
35049 36317 -1451
8201 28811 17306
1713 19637 23686
14856 20947 -672
37298 23788 969
28679 4009 5315
27326 16318 -1878
10729 3170 -3607
8343 20076 -1386
13915 28742 -1362
20913 10375 5800
7123 4595 -203
9704 11969 -1001
19532 11800 -3344
25198 12112 -3333
26994 36520 12015
36757 13415 26140
16284 30674 -3709
32092 25128 32847
16077 27991 -454
30950 249 -2498
9801 15495 -284
6979 30145 18361
16437 15250 -1102
6339 13333 -2548
7082 22776 10986
17038 13778 8
228 37349 -3116
7291 32009 -56
27512 22828 -3470
14471 24754 -1531
3261 3346 11961
33006 20208 7180
4883 8643 -2472
17175 11392 -2499
35278 37212 15253
31351 29915 7980
6012 5004 -23
14575 19990 -1982
972 4922 -1902
11828 6329 -2016
22639 19270 -2777
29197 8184 2917
30726 4919 3112
7208 16486 27537
10739 2488 12632
13837 30099 -2099
25 3454 13211
14716 28152 21360
31113 7478 -2243
19538 13167 -49
34935 34911 7537
22949 19073 19892
33235 20724 -821
17954 11429 1825
12642 19964 -1121
5558 16042 -2992
23115 22474 34819
18969 11251 -524
8575 30799 4031
17589 4012 1140
30678 17106 25351
2467 2627 -701
33191 7607 -817
9535 31568 27076
12536 17775 24212
431 3227 -553
3643 35700 14545
8340 9752 -349
31532 30622 -41
24269 5964 -3490
3750 7343 -1438
21327 19122 -1121
19370 5417 -3656
17487 29028 -845
29107 14276 -1329
13648 10759 5475
36495 34702 35562
13277 19870 -2552
8758 21554 -1245
6889 15745 -1286
18623 7512 -2798
2612 21886 -1516
31949 37188 6793
18398 20685 -901
15474 30007 -474
15237 36260 8378
360 19595 -2779
26508 28133 -2775
6540 20339 12851
29672 3275 3792
1914 25568 -995
13513 28320 32739
36192 10567 34066
25579 7753 36770
33294 30970 25393
8084 2877 11081
16468 2210 28049
23658 36208 19541
19068 28089 -1460
24877 11686 -3548
6545 37498 32097
31935 22153 -1247
27939 34322 -2670
32086 5820 20483
943 26927 1269
1088 32619 32149
11893 7511 -2983
83 15707 -352
34447 13271 14473
14177 37333 21955
8832 13304 9357
34923 4991 24510
23125 21935 5711
25490 21568 -2844
8449 419 29911
32126 24963 2993
3856 26823 19059
32731 13934 16326
19875 25892 282
11477 2618 -3583
31231 1496 -2059
35442 11021 -2501
15664 16821 821
29452 15329 1308
8740 979 -2871
6235 26949 -3023
15330 21456 24477
26754 6520 20700
6539 15738 2620
5509 12527 -170
9309 27939 -1624
36195 36611 34531
33276 21426 -3578
14196 1028 -1779
19350 4339 21804
26617 2588 25171
7386 9869 -598
26020 10277 33949
29771 10782 19472
31105 5468 -1509
18873 33816 -1214
36907 11279 10475
20756 8994 -2791
17929 17007 -3448
3777 30505 -1051
16615 2677 14105
10051 36775 22560
20059 28153 28092
32173 2465 -2927
11790 32585 17965
14866 18501 -3172
18175 32263 35811
34734 31897 19227
3484 15274 8374
9195 28771 16303
8423 28225 -2850
1489 15682 -892
19093 6557 -2310
25099 28291 4598
35177 3688 352
37242 14331 -1509
22952 8172 12248
35435 34151 35522
3813 17784 -1944
34372 26269 -1882
31931 3721 30980
32606 34073 -453
36510 16912 -2053
7739 18393 15278
19845 15734 14465
31519 12190 -2195
18249 20788 -3436
13324 11835 -615
35686 26454 11543
2835 7858 32605
2247 31821 19298
30323 21140 25529
31574 28181 -1878
19264 35551 11275
32522 4269 -1459
30654 14315 -3288
1623 7367 -851
35239 30606 28806
26113 23458 35389
13543 9238 10785
21167 18785 13931
14950 28942 -1670
1977 32404 1452
35510 25803 -3382
31613 6940 35764
2371 16232 18702
35604 25082 -3119
15797 5272 -3475
27708 27329 -981
18290 34394 -580
11298 6458 19267
1819 23383 14190
17687 14456 -3140
18164 35556 1746
22530 29688 20271
32346 23781 12598
16114 15208 15511
5687 21821 -3675
32333 24419 24869
1267 10974 14018
26192 32940 -1037
32939 21661 -3354
24808 30661 33832
29322 36453 3596
35089 3374 1502
11400 36336 11755
3669 15455 -1017
8359 19798 -2254
12525 25148 23876
7428 2634 -2331
32765 2647 36475
37417 16682 13809
11501 35831 -1359
930 3622 -2127
33836 9312 -3424
31546 34028 -2398
35469 9941 26795
34257 23672 17752
23963 13793 -466
22940 33987 -3414
30765 34885 -2151
2828 5205 2227
34229 12501 27553
31642 35722 -3637
25909 31889 35065
28853 24667 32917
7378 18581 -3348
31587 4683 6034
8026 10827 -873
26923 5544 10619
1324 9504 -2655
12988 14412 28772
26641 27958 10161
8278 10575 10751
21509 12865 31274
35738 2069 2625
16185 22890 35800
25227 34860 33133
1708 27428 -253
33543 7496 19061
20399 18732 -491
37174 7016 -589
14630 3413 -613
5507 13681 24313
8615 4260 10128
22713 33801 -2908
21230 19121 -50
14959 26799 32090
7123 25609 -2734
36157 35188 -2763
5731 28602 -341
20823 11198 18289
21868 23352 -3217
32046 28408 -3276
12120 5241 -465
6701 30852 13993
33588 2421 5048
25253 11826 -618
25104 30237 21261
17577 10370 -918
29304 137 22733
2742 7393 15359
1381 9212 12907
33009 6645 31349
13667 5570 20843
15680 25211 6779
7884 1575 15405
14689 1546 -2900
487 30452 25709
12196 35595 29612
18599 24532 -2766
16632 14132 9658
913 1528 -2240
13630 4475 5221
18754 7292 22659
31667 11142 -355
4135 16771 -2285
13945 33365 -1764
14574 33621 -1371
6204 9028 -1115
14648 25549 26700
8977 14270 -2669
35234 21853 36623
18801 34339 -3314
750 12155 -964
11292 26498 -1835
14305 36530 -710
36159 22364 27952
36013 15948 2867
12710 4728 -1481
24229 268 21947
10364 23423 -106
29559 21275 -304
32681 1404 4507
16822 4709 -3266
1031 16201 -1953
8157 24773 -1798
6228 4866 8605
27413 21926 -2988
11670 30874 1407
16220 34794 34796
12393 25938 -831
24541 19666 -3227
1942 21798 355
28613 28654 -1285
11460 29789 34510
27365 28661 27536
5486 28390 -1950
30193 27980 -1888
25429 32514 22204
30978 35338 10649
16778 36583 -575
7624 23773 9074
3507 13411 -1972
13449 28841 -812
24852 34569 29869
5244 29165 -466
15569 29826 -1417
16511 28971 22398
29936 7176 -1290
1492 16675 -826
27891 6136 -1665
35109 13596 -3232
37216 12164 22825
22351 23593 -962
34368 15993 -2328
21869 13047 -738
28406 26996 8481
35479 36478 -1950
16062 22146 2712
25047 32281 34737
16564 37169 -804
25646 16750 -225
27418 5557 2625
33230 5952 19201
18391 15526 -1870
25670 29956 -1360
21246 36967 25523
23453 13527 -2397
13509 31485 21800
16929 3215 -860
27266 17341 -2478
1604 6514 18287
13630 9758 19837
13722 24117 36211
26129 22699 -1747
34646 21333 5357
24841 34391 -2045
1191 24760 -2897
8113 21850 -1021
17716 29303 1727
31554 36211 29959
17324 7032 -3363
11742 6636 -1407
2549 28140 -1400
11796 34548 -1604
30057 22990 18158
33624 3935 -3634
23451 22793 31367
26141 17282 -1062
28540 35848 35970
8939 16496 22742
28499 11737 9472
12926 27631 -3242
16954 15091 -489
7535 18852 30741
4768 13203 12179
9618 8965 1144
25579 20800 -726
9750 7080 -418
8662 18047 21643
22565 33853 19444
31404 33657 15146
16308 15144 6574
37179 6597 -2967
889 4236 -1122
31547 9273 25409
1357 20067 7302
4685 10267 -2006
21862 15317 -3304
21024 31205 12633
20304 6530 -3735
6292 2219 -2126
18835 37335 3572
19956 1283 -3624
17311 16262 -2654
33064 8786 -1761
7305 36285 1718
19437 6801 -3574
2007 1090 5067
33323 26266 4527
32235 11983 9172
27293 6339 385
16856 17716 9104
3191 28964 -2552
11067 5480 19921
30456 18438 23303
1022 13311 11882
24175 33612 4098
36193 19960 -3256
23807 25446 18627
17662 24207 257
5504 16520 -1666
14901 4791 11921
3232 18613 -3458
8128 925 -1865
31563 16194 31487
35019 128 -3271
36764 9810 -1373
12758 22912 25994
9759 5865 24071
35333 29389 -3098
1826 33990 -1583
27278 14912 -1753
22612 10084 -782
15938 7717 -806
34487 26497 11489
14808 2682 -726
101 24900 -3677
10348 18059 -2094
25478 14684 14896
2123 1551 -2531
21813 10216 -524
7329 2086 18687
13242 17700 -3075
20377 36420 24755
18065 29912 521
12739 18346 8286
3628 1873 12772
15352 23117 4435
24899 15129 3549
8279 11244 -3053
8665 32764 -2658
31246 25547 -2881
18499 9088 -982
10239 8126 -1632
34343 21585 8880
11598 3917 25967
220 26092 -2895
16720 37082 -667
17878 22376 -460
19731 29114 -2032
34623 35683 -2336
34136 11018 20139
631 13913 -1314
33387 22073 -3240
35321 36109 -3032
34085 21876 -2757
14121 23819 -105
5478 6972 -1473
21564 25089 0
26481 35529 -53
13950 18167 8800
33601 9851 2543
21646 6305 -2190
18615 30852 10296
35019 2255 -2197
15147 32198 -1387
19167 31352 19177
1398 18708 -1714
20510 26249 -2056
7081 2989 -2092
4423 30663 -3119
619 20355 -3164
12081 22797 9031
20925 7577 -3500
33166 24940 -2685
26873 1860 30461
13543 25815 -1703
14153 32382 -2779
30755 17644 27170
995 34312 21807
15789 7236 18542
15391 30270 21148
27202 26673 35126
16514 27314 -3378
37281 28138 -1426
1208 36311 33566
19702 13137 -640
35164 21871 -39
17327 296 32697
34559 14702 31913
10279 11636 985
4863 6286 26938
10003 13140 -3589
31444 25070 -477
33207 27067 -3574
8111 34854 -796
12102 8959 13430
2739 26091 25786
2517 12210 19310
2080 5445 -1750
26097 31998 -2259
7722 27319 11652
26056 29399 24
16300 24796 -3017
15639 10737 4931
15990 31952 -2328
23633 35630 23383
34278 14261 -1631
34852 19195 -3568
28159 19623 37340
13772 11211 -1559
8334 35053 31276
31690 36917 -1823
8851 13934 -979
13829 4893 -2883
7950 17729 -3264
29190 1277 -523
27533 16250 -1046
22283 28278 20583
28406 26725 22456
25969 23409 -3002
21344 17845 -892
34758 32885 -2505
31664 2003 -529
7997 177 4295
6644 12404 -3436
9209 15540 -3383
5969 25007 -8
3055 6908 -3540
8570 27002 -2465
611 35923 -828
17596 18145 35450
17108 100 -2575
7538 10888 -1642
11437 6180 15507
8125 1580 7734
20448 16591 -3547
9119 32264 14302
7374 13932 -218
18266 17781 -2610
26903 29873 -718
27116 8241 22561
31165 1411 14266
17651 21204 -402
14609 32677 2214
26772 36856 -2375
23784 22343 -3118
11943 6642 -792
3228 77 21813
9891 29860 -11
37459 24047 -263
31291 29133 -3073
13031 10735 -3403
13584 9339 -58
37182 12241 -2530
31434 15536 -978
15116 3348 36982
31071 3736 8996
1456 37052 -899
13767 11106 28376
22779 30921 -2545
25712 664 13924
7228 32118 36374
20494 1085 24388
14659 32707 -608
9763 30140 32570
25594 18816 3799
8931 5385 19227
24164 29917 -1204
26754 18196 -1741
4376 3560 -1279
18614 27491 17386
31002 11686 -3677
16516 939 -1163
29564 33768 -2879
34727 33320 -1607
15491 36103 -581
4103 30704 19003
23514 11230 -3700
16994 32907 -2694
8867 17761 4692
22979 177 -2070
32071 22524 18934
18364 27118 -108
8302 3484 -3703
25008 22895 15195
25156 23112 -3687
34785 28518 -3059
22212 19184 -1457
20829 31469 -2623
35266 4703 10063
14891 34696 -2100
8179 36811 -2720
12455 13970 -1423
30436 982 -2603
20232 18964 11463
16470 33169 -219
561 6991 20312
31521 6175 25030
1125 1932 -1277
11904 22451 10448
3833 35684 20647
20938 34530 5010
19246 6049 -3722
29563 18017 13966
35664 35952 -2849
14407 33672 -1466
14495 13648 -1610
19353 998 -303
23901 7058 -543
34282 14235 27088
29713 20320 19175
31622 16129 -1972
11722 83 33483
30020 18519 26581
30149 2196 -2578
34021 21897 13631
9320 17149 37230
27763 4347 8862
34257 18014 -1951
17132 28099 -3553
10473 15353 33327
13120 9342 1477
18538 29464 -513
34537 14875 15410
26898 27798 -161
25420 753 -2061
28743 13529 -1475
27918 2682 -2775
34641 31420 -3641
20564 12403 -2638
4817 22299 -427
18938 5995 8888
11002 19015 -201
11532 1641 -170
29642 7786 28027
10357 7724 12006
24184 25245 -2280
31571 3918 27955
36653 5871 37032
37302 16664 -2225
20985 15357 30718
10211 1981 3280
2301 34686 -533
2262 34574 11054
25271 3247 2626
32295 18674 18989
31216 15836 -269
11263 33017 27394
14084 31890 -854
3824 21594 1752
28138 4166 -2408
35623 635 35213
22150 11953 -2364
29007 17453 4365
36173 14020 16969
10034 6095 -1555
30574 34109 -502
7810 13331 -2026
11769 25851 -225
34492 15072 10622
4670 28541 -1199
13403 30681 -3267
34947 13396 19543
9977 32623 -2751
8390 12522 -2497
18850 13371 2766
9253 32442 -1402
20833 17652 -2767
28795 8540 -1527
30520 19474 -2245
35886 30995 1215
26379 26123 -3121
16545 1422 30735
30529 24222 -259
30569 26962 16551
6258 4152 16324
1461 31108 -355
3732 4963 -255
15265 2492 1848
19831 13534 -3737
32217 10403 22654
8303 37229 -974
32851 4795 9492
6136 3466 -1856
23879 29380 30486
27997 35595 15396
33113 11228 -3337
16402 16323 881
7297 7823 -49
667 12994 13198
9447 9839 -1758
24181 12638 -53
6274 28244 -5
26366 3545 21551
29798 22639 -2861
11099 3387 32184
34899 6157 -3316
2976 26353 -1756
8864 1647 25167
21183 23270 -2685
14409 36609 16834
31812 17191 -2839
31208 21208 17478
30183 17150 -1250
13053 34403 6800
16559 15061 -214
31987 8511 -2305
7128 16155 21584
5778 20373 -3360
27002 1804 -2599
3566 5257 -2056
24326 34315 -3204
7989 17597 -2766
22708 9092 -3473
22088 26635 37466
17231 26554 8685
31424 18713 32045
21156 37019 -1068
3010 28260 2922
21556 17932 10058
30660 18864 -3014
24650 9722 -918
16492 5104 -2183
13176 26603 -701
36758 8616 -2123
5554 24051 -3285
19503 1841 9707
613 30638 -2336
14157 30880 -491
35126 12654 -481
6606 16420 20265
22398 19252 -2604
15690 21878 22681
34281 7069 31154
17551 29475 36089
4417 13268 -2939
30069 10133 23468
16478 24491 -3113
18045 12529 34473
35817 24320 6755
9757 2872 12180
17318 30189 -2278
26693 15720 7292
1613 29777 -68
28904 37242 9717
21917 10199 -1958
25265 30404 27367
2410 11647 -129
20798 6577 9281
17873 10364 17873
23052 697 32164
5000 7892 16243
16144 19432 36245
24187 976 -1884
14697 9667 -1635
7546 8370 -289
4324 3745 -3036
12479 26894 12743
1263 27111 8420
11466 23308 69
13913 5760 -3052
24709 24568 155
27669 6375 36978
31979 48 17720
27925 12680 -874
8231 27398 1047
28978 33874 -2716
29053 29641 -1395
1075 35538 12591
11219 27103 11250
10646 28848 -3082
22969 12950 -689
17572 34165 21259
19785 34569 -1678
10454 7735 -2397
13487 25022 1353
6632 9494 -2563
25962 30423 -3517
31543 18394 26675
4939 24485 26405
20341 33147 -2968
18228 29166 -3289
15981 25648 -472
14360 26887 37381
32453 33303 -88
19034 27486 15174
17247 24598 27549
36814 24518 3268
3858 34356 8758
9726 7171 36065
134 4060 -2895
12550 14070 26343
32255 27377 9918
30487 31902 -3336
22832 32308 -1533
2768 10486 37261
11879 11318 11054
17862 27019 -3675
14979 11241 19694
14607 542 9708
8215 6067 -2400
31427 8021 -655
36350 13748 6285
12411 34198 26902
19371 34865 -1217
14394 25407 8957
5510 20655 -2550
10451 34859 27436
27013 8292 7240
34956 33343 -1297
5227 31421 -1998
31200 22285 -1957
24704 28098 25401
11697 5098 7022
7931 36514 29140
12988 15097 -2083
8105 2259 12586
30901 952 33516
35684 5195 -2376
22906 18343 -2216
1797 16735 31952
22162 11239 14236
9151 36709 30590
16046 4153 -1204
29474 12613 20204
22523 35142 -3343
21265 31947 25174
7581 8196 -2846
35546 32425 -847
14961 23107 -3715
8294 21409 -2893
4121 14679 -668
36275 19930 14576
21136 36737 21664
2077 19240 22817
13831 15743 -2493
28524 25224 28087
14620 1047 1196
19857 36604 -2694
9994 31205 25999
2907 8149 23989
7006 5030 -56
33587 20498 -2460
7300 34139 -1338
24371 18615 -2423
28216 16423 -2221
9331 1341 -1652
1271 2759 -1805
8103 1536 33000
14575 6151 -1576
15463 14191 -929
14558 33076 -377
23357 11507 9060
21588 4291 -2340
7155 1800 30068
774 1304 -3500
24586 27764 11542
31946 24918 2658
19631 15130 10883
9220 21073 -1853
31177 29034 -184
6020 23465 -2325
5268 25218 28657
7387 37205 9089
15676 8492 6660
2311 35820 -1083
29719 28268 29895
27610 28908 33384
32443 9713 32008
21088 17224 34358
22384 15488 33095
36997 24968 20670
27109 31313 -3056
32956 12346 12330
28060 2985 33787
15718 24029 -2073
36620 37453 16544
8571 21205 -2353
37384 31311 27091
23370 30991 -516
18172 16374 -1568
16653 26139 995
19307 16908 2358
13556 4053 11401
13518 22419 15168
21787 5423 19801
13449 37269 37336
12984 7029 13087
11462 8674 -1
20773 26953 -3495
4369 6399 309
3237 633 32908
508 32101 9530
26028 29799 -2356
9070 17131 -2481
20792 23304 -2706
25786 5362 8894
22621 13325 -3213
5934 23838 27128
8843 19555 25604
22315 16402 14009
14008 9032 22107
36660 11477 11557
28331 383 2952
32133 36587 -2500
16949 19436 -1548
28299 154 -3414
9968 9254 4943
6781 7040 -2698
9874 26133 22561
31722 1633 23211
34854 18779 -3283
36685 23170 27635
9240 17278 36799
7949 32539 17363
8494 17316 33305
12463 37186 29636
9737 22049 -2711
32228 24386 -1460
15819 19364 31732
32284 16322 -1520
25875 4702 -307
32342 35828 26629
24519 2457 -907
33404 19476 7518
20971 27439 25101
28046 17399 -1793
12575 12493 -653
2233 4606 7544
35269 37207 -1577
24023 18437 -1078
22777 17309 23762
472 7026 -683
5427 14849 14862
15747 16573 35457
32216 8256 8327
13400 4363 -3625
29853 37484 23473
26172 29058 -2500
28330 21720 30154
16133 4604 -1050
32979 36419 16826
30325 20627 11194
26975 25166 1723
769 16489 -3465
8049 31963 -2340
26491 22199 -662
24576 20868 28730
9812 8950 -2897
7179 2435 13674
29254 34213 -1685
28251 25015 -1995
12399 10289 -2796
20262 24803 -2916
8697 1735 34453
14802 25116 -322
34447 17131 14157
11387 32124 28619
17214 35606 -930
23665 25354 -812
29634 31460 34777
30336 16121 -2402
35397 23662 10827
7664 32941 6792
574 13136 9136
32087 21572 8009
15803 11297 -3042
18810 33139 22084
11527 3654 28445
36256 20586 -1757
10440 17703 33524
35169 29067 17482
30828 12879 -2280
36972 12595 19483
20398 21467 28522
35893 24500 -1131
17443 2565 32270
13631 4612 -2891
329 15349 -3616
2933 20422 7534
30409 5868 34938
6549 19130 -2795
20772 296 34726
2365 7775 -2247
34383 30894 10644
32624 10337 2421
852 755 28171
33091 35010 -148
24601 9639 5409
30863 15481 -1823
20974 17491 72
36596 488 35954
34694 6724 -2260
2352 11706 22797
9330 19132 -354
2093 2434 36506
12325 3439 -2529
9671 2681 -2746
22923 27492 -3500
5762 12018 37140
31816 3085 3571
409 33177 -2891
36746 33796 23750
28250 3301 36988
18302 26641 -2887
19667 37443 -1620
10866 14257 -233
14623 8700 6402
4311 30853 34010
33066 21707 -1487
25020 611 -530
32146 20492 885
2832 4386 474
26239 20878 -1897
34217 18210 -3378
19670 8030 11175
1464 1117 10870
27367 10066 -1623
15452 18215 -858
20758 35502 -158
19272 27066 24566
20190 20521 4979
8881 21522 -2941
27277 33420 -2986
30561 28207 -1080
23986 17534 -875
32929 23204 27796
20352 14511 25088
31587 31363 -2134
33468 15746 19535
27957 17340 -2977
35983 11309 30276
5938 21448 -140
5438 18141 2352
9383 27293 19057
6859 15592 -1265
17396 37301 -2034
21214 11094 -347
3163 22963 -1442
21227 14706 -1798
31152 21160 20329
23352 25752 -1955
20304 36117 21422
20125 10090 20667
25157 6002 21336
31127 35938 -1621
13107 22816 -777
1325 10910 -3120
25274 326 -2973
17625 3163 34715
3005 16504 -1881
14470 37370 -2484
20258 36605 -791
26916 35080 -2952
16069 21361 -2483
24567 13988 29784
3786 8646 22691
22943 30360 -2107
34181 18340 238
21856 33313 7424
32404 22758 -14
36312 4439 -1300
8808 23928 -708
9023 5683 -774
13048 25269 34622
8132 32823 11233
1982 11456 -2975
20609 25404 -470
2949 747 -1104
11136 3891 9157
31206 35367 3744
22361 12925 20987
22384 12910 -1622
31251 11539 -3539
5042 845 -1854
9311 8287 -1411
31838 28172 -3351
19675 11078 20340
28117 7002 -2567
2543 16634 -2773
35084 12498 3864
35492 16982 21949
26329 22832 14550
36604 15170 28521
18990 12352 -1427
9904 14780 35418
7355 28746 -2501
28924 8815 -2649
5438 26915 16601
9052 12764 28752
30862 15511 7806
14357 34177 -2587
14055 2589 33114
27971 10567 -1760
25506 5774 -2723
26560 36895 6543
26507 31302 -3342
22958 12835 24596
36303 8205 -3171
18974 13083 -2436
31829 3540 -3168
8494 15307 16979
27341 3846 -1250
25030 32211 33447
23114 738 9798
19326 20851 -1342
15856 18527 12117
4616 2039 -2615
10278 34467 29091
32676 24807 35737
12603 22166 24902
32674 14547 31547
23190 62 24198
15292 12951 -376
429 18906 3393
3166 3047 -683
29435 24097 718
19733 27011 32322
33698 23367 3841
17805 8848 -1493
15203 27334 26742
22838 20198 19537
34588 6959 23965
29262 26211 19250
5150 19245 -2778
33535 26887 -3413
9014 21796 -3466
26176 25199 -1232
31049 24487 -3543
8824 6882 -1928
12156 23082 -547
14025 470 14393
22748 18126 15675
10922 12725 -3117
16986 18618 -1949
5178 35785 -207
16472 25362 -253
17905 32820 -2372
35385 11429 18470
16207 28583 19755
14687 16771 -663
35130 35831 29104
11928 3266 -1313
14055 33314 -977
3828 29646 -2615
33717 5615 19284
19953 15611 -1867
22177 21510 -1481
9658 31724 19634
27147 20573 -3713
18649 20896 -1931
35335 9405 31323
7045 36797 -3616
10160 21745 11202
33404 9483 -843
5090 5522 2314
31691 6384 20591
9941 36043 -2010
23850 19978 23456
14897 24520 4180
5973 21047 -2779
30030 2224 -3748
19263 34506 -2131
824 31697 3878
8370 4943 -3678
22826 941 -659
31032 7259 -2783
17495 2892 6052
21086 17946 29629
33488 26143 -3668
31109 33130 -3086
27500 22911 14862
30493 35330 2429
30448 13768 16551
26291 21944 -49
7672 22451 4275
1965 22250 -3482
25789 14439 -313
20500 36094 -1743
6271 35653 12285
26390 14052 7902
34565 36838 3914
9150 15879 -530
16075 8937 -1339
12346 7303 -1581
26115 31276 -2324
9214 33180 28156
17294 6845 -110
13273 27875 -1262
18341 9286 -357
18777 14457 16988
19253 19500 -1750
32604 17097 -481
11875 5643 6486
13633 35871 12646
36554 17269 3085
27172 4067 -2461
32778 16559 -2410
32311 6614 -1494
13043 10487 1834
11119 36921 24551
28367 1504 -3496
29222 10784 -902
9480 22737 8651
15344 5192 -1945
15967 17126 2039
12960 31865 -2541
25091 5367 -2153
16953 34309 30571
16049 18027 -3336
29162 33608 32695
29375 11995 -1207
20448 18361 -1443
27394 29134 -2016
15405 15867 23943
796 32604 -607
10992 23250 27974
135 8830 -993
37078 2728 -2122
33086 18709 -496
10443 24031 -626
27999 27327 6049
12041 6096 -2201
11200 26389 -314
12125 7108 -1246
13299 30395 26232
6085 11468 23565
10144 7066 -2061
31734 27581 23154
2002 20949 -3229
25825 5434 29373
14137 5483 35712
29990 4247 -146
4746 35922 -1749
10214 18399 -3400
24114 4211 -484
1097 27624 37103
21265 25849 -2366
27820 2805 -590
35053 12628 -3033
23020 18610 -171
24244 20414 20906
32085 765 -3277
22766 8365 15792
33594 11173 -1614
11579 15681 -94
4762 19018 26237
33847 22725 -541
28939 18878 -2997
11633 14676 14942
27281 14703 3256
9208 53 11552
3040 23473 -1894
6633 4092 -3581
27067 1830 -2675
4205 22540 13281
16408 29904 -770
28364 25541 26445
37332 17784 36124
15990 26610 28454
19624 19235 -2281
37210 29000 14958
9877 7024 31646
25575 9123 15105
21868 13741 11242
30705 19916 26226
1908 27551 30145
2105 31441 -1985
8693 13450 -1860
17654 29578 -557
20123 142 28070
33679 20888 -2676
12602 24626 -792
12991 36815 -2305
36143 11821 7826
30424 32554 24825
16728 32105 -440
22632 14631 -669
18299 7874 33865
22133 17456 -2442
858 16193 -372
15320 28682 6727
24417 14446 6136
6354 31852 26641
4581 12890 33343
35069 28572 -1230
16049 21674 -3019
18651 6552 -937
17940 2281 -2156
16140 4215 -2689
32350 32607 32377
803 32938 -2377
6599 18238 -1693
20768 25958 14192
25377 5600 -3481
4224 24151 20093
20236 28274 30157
16511 30317 -1323
18295 14806 16913
13034 21546 -2175
33654 15973 -2454
33625 17026 28181
15151 19294 28378
35205 17447 -1859
19111 620 31789
12695 15185 10212
26812 20935 23369
11987 15111 26494
8513 25635 -2886
29759 35487 -81
37287 9134 27638
22099 27268 -769
1254 26967 -3708
17146 24284 -566
28615 6542 1250
5682 2799 -1169
21924 3152 13620
17804 32687 35459
27584 28345 -2565
17699 31567 10926
1884 7398 26062
9168 28954 -2710
31408 5826 7176
6458 25389 -2250
2239 28824 5473
32750 33295 -817
35390 8257 -1827
30885 28160 -3151
12291 12332 -3633
10555 3358 2996
31406 5499 -198
22057 884 809
7193 36273 32419
14277 32821 32617
7013 24045 -1477
18292 9657 -2588
145 26078 -3523
28527 33057 -2145
35675 10135 -3594
11134 20179 32190
19490 18606 10750
25397 26795 32691
34292 32115 -2105
28350 7224 738
1487 7054 -3157
6793 27874 11027
31939 9066 10196
35158 36394 33999
4330 3988 33047
4075 5332 -1562
36350 4642 -701
31687 305 -1453
7137 14219 31531
26440 30108 18486
17393 18427 -2541
2592 17878 -3510
18885 7410 -1500
618 32509 -3367
22697 14374 -2052
30091 27166 -2472
2774 34256 -352
24574 31359 6083
2744 5762 12924
31269 21065 -313
24407 27995 -1155
13302 26321 29122
1685 17986 -1278
8429 15775 1852
2431 22667 15058
1353 27061 23594
1243 35963 35672
18809 21824 -3048
28385 12439 29412
2907 31053 537
16726 5390 24356
11732 24216 6001
9926 1864 31420
27378 31703 -3178
20020 14440 -1003
25447 23158 -1722
34870 14598 23621
26592 28066 20700
11642 17111 11348
13072 26369 27867
31616 33966 -143
26822 26152 5318
9658 10103 1256
18638 31767 14611
33964 10854 23665
21598 32889 -3163
12996 29216 -3048
5005 13432 -816
23950 3963 -1715
17699 24506 33520
29836 29368 33670
30036 14363 7272
31479 22168 -2526
26922 13126 -810
25251 27474 12099
1661 13064 19669
18185 5238 -1478
12681 18829 -3103
29740 6071 4429
2989 23581 -3364
11479 25628 32350
35200 5455 36030
36150 20996 -974
27060 19437 -2275
22324 17247 -899
26168 37401 -3416
28258 28777 -1366
14570 35304 -3167
481 21585 -320
25697 27922 -1370
18980 10585 1760
10338 9516 -2044
25908 13684 -1630
12021 34451 10257
2309 4312 -2463
18011 16061 -2015
29941 8270 33766
24819 34767 23671
22381 9958 19024
11130 31098 -264
35930 18595 14969
10184 20392 -371
10411 32487 -620
14738 18174 -2500
14265 32956 21712
28676 21051 -2560
14903 16582 8182
34573 23338 22702
34329 29984 36651
23722 14421 19527
3507 23216 7251
24658 13921 -416
35169 28425 23754
886 6370 -1351
23177 30051 -919
6507 25792 -3408
14179 11654 -1544
18234 6680 7457
7676 25100 28900
4415 18043 -2556
34507 24854 16008
24622 13379 -1292
7296 24912 6194
11094 26611 32043
17342 3887 23347
20803 35010 -1600
14884 8150 -760
9106 3390 27935
19940 34225 23401
23630 36518 6185
15037 37100 -1518
18792 20435 -1040
21088 17254 33053
21237 35653 -1034
15109 21961 -1011
36824 11585 1018
11215 18521 15781
7848 8115 -1582
5097 17614 -2400
30200 27072 -1474
4006 25971 3862
1382 27180 -1894
10953 32002 30671
12952 23120 -1770
4976 33548 -1679
15706 15986 -2558
6027 25382 13916
15783 33617 -2958
2240 14009 19137
14194 36097 -2975
22373 29657 25263
33014 28216 -2709
2604 17319 -3340
33899 25948 -2972
14319 19786 32521
15060 30630 1177
24289 22979 18018
29565 12930 -2413
28186 30980 -2449
33321 31885 -2374
22177 24172 12848
36801 8734 -188
2905 11634 -264
24298 8992 -29
11174 6830 -2442
6880 21791 8059
21586 6648 24580
32666 7757 35848
35973 4727 -141
14810 9668 -2015
28715 9055 12981
5759 13746 -535
32530 4048 -3242
2354 26585 -1725
28741 21704 -1902
25463 20435 29633
35690 1151 7960
8125 30617 24139
18452 11168 19605
3716 160 30278
33776 18194 17376
9133 416 -1134
34948 21752 16659
30355 6517 21509
17069 23787 35070
6946 32652 12107
18690 21387 16207
29 32131 14836
17297 32977 -2809
29876 18515 23593
30981 14024 -3436
11443 33289 455
7281 23746 26711
1328 13911 18467
1791 18397 -1514
35656 32564 12221
35299 12040 35735
19179 29885 -3021
18305 23796 25621
5762 9093 24491
21426 5692 -202
11749 7149 21048
19727 1215 -1381
32719 30667 22391
24645 36471 15394
34936 31362 2834
25905 18129 12488
33710 13277 -378
9768 10656 2400
28553 33053 -157
30982 14970 -2912
22545 3869 -3151
21391 21275 27808
11554 19719 -2146
12575 25878 -380
31376 14019 8366
28714 27234 9972
8342 8972 -2943
26487 15786 11874
10879 1713 -1975
7486 34546 24933
14085 15259 21506
16102 14860 29535
18429 20682 -2192
7342 24340 25017
25225 15117 -2909
7701 32 -1621
7548 34985 -1256
33052 17018 18744
33884 35807 36164
15970 34473 1823
11924 5126 4481
37260 30583 -3390
6960 29401 -2867
33581 29590 31590
24078 24378 12358
37240 11882 24930
34772 5914 -3097
8834 24879 -1666
1496 3890 -193
7715 15067 34763
13007 5565 -1130
7643 22131 -360
892 12927 17000
13760 15943 -1299
5164 4480 23144
23628 23487 -887
33322 17539 15758
10602 5329 -3501
1967 9531 -1815
36263 15708 16972
8772 13712 33187
5208 28655 -756
9420 10756 2620
3234 3169 35587
30571 33780 27377
7637 27464 10267
26298 12813 20226
25707 7438 22587
16146 11280 -312
14027 37302 -779
16596 6834 10279
12550 4283 -619
17498 2249 -2316
30568 8087 2461
16796 28772 5269
4236 12653 883
10049 17722 -3728
35301 14363 2109
6132 35546 10310
3246 29050 -133
18412 35780 -2167
8547 18556 -1352
36462 17952 -3458
13576 22406 -2545
33403 11600 20092
11425 9049 21308
19389 31032 -2748
26372 24309 -439
8246 17480 31639
20188 1945 -3383
12363 25420 15361
13640 21102 37074
14038 18399 10179
12962 18820 -872
26545 30323 -1374
18690 6353 6775
23873 27834 34110
10471 11745 -2376
2356 21532 8194
21419 22766 -2673
35405 22746 11250
13974 24686 -2632
6549 29805 33535
25657 17388 10884
23291 28795 -1736
17774 2564 11987
14731 34501 -2413
30428 24311 -3153
5480 11736 -99
5569 29476 -376
2405 1575 14521
26369 5902 5879
9067 27637 -2525
10759 19113 -550
35879 3771 -2336
26609 18588 -490
25374 36299 34952
1964 14125 3729
36271 7739 32948
30772 10100 -2883
6719 5776 17316
15279 31166 32352
20946 15013 33443
19971 2827 16490
18137 29973 -729
12525 16151 27732
2941 24717 -3172
36301 29638 26950
4233 19378 34713
5898 661 -797
36730 8786 -443
28457 28763 -55
21203 15825 35080
2167 12228 -2610
14216 22507 -1403
7236 32548 32447
8421 13479 26762
34143 37126 -195
37445 33721 24832
10548 4231 7440
6552 790 -2747
2747 26128 -265
15834 12676 -3421
35267 4306 -3309
24223 13326 18793
1274 23951 397
5316 31870 -2042
29414 37372 -3615
11385 20642 -2245
9747 27730 5387
30941 6933 -3072
14478 4726 -2551
17492 5851 12728
1414 15858 10396
12742 25466 28410
10898 33555 -3452
5924 14518 -1944
13204 11583 -1085
28793 23840 -1319
21908 3321 -187
32249 32518 -2699
23959 14833 5217
27329 19951 -2586
13245 23330 35998
35306 26091 -1484
2205 29028 -1712
28286 34785 7190
5465 12516 3477
23644 5620 -1049
4770 35638 -2604
27764 751 -2362
10983 13354 8347
30391 32185 6528
15081 33612 20798
13786 24835 -2174
26359 26536 -2112
33072 4550 16550
20735 5258 -197
33106 22172 -1432
1914 34067 -3249
8576 29459 -3097
13648 1927 -2969
19518 33791 -1746
1057 3306 19063
1411 17310 22809
15626 11081 30798
27260 10051 -2853
34375 18931 -2809
4025 2675 -1835
25354 32899 1689
9129 6752 26350
24145 15915 -1525
13635 11858 -2397
2285 5679 26268
283 24489 29270
15810 14739 11594
17198 32953 5522
8840 12851 13520
17879 35942 4
25979 21208 11725
17727 18931 28124
20005 14043 3026
35924 13167 10880
16635 31981 7492
15386 12729 -1404
11500 16827 23068
23756 17296 -1636
35135 37137 -2124
3647 31428 4267
2133 21666 31029
17400 22263 29940
6203 20694 6823
9655 21830 -2044
2303 12498 12627
12844 35220 -120
31773 2707 -1482
34215 12787 -1171
682 18357 -441
2966 13990 27686
13006 29269 -2808
22905 29758 -1365
26337 26256 -1399
26787 7892 969
12519 8083 -2384
22473 13389 7564
28877 16376 -588
36264 7693 -1049
22381 7799 -3021
9928 14656 26878
6143 3943 -1390
24098 30050 -3294
28489 4569 -535
3695 7342 1368
18817 33174 -3193
16439 4878 -3073
26919 7548 -3056
28990 7074 -3650
28244 30996 -2127
19911 12216 -1199
3498 17067 32276
14656 21230 -1066
29972 7689 25034
2291 7804 11418
17635 5357 -1487
26381 4584 -2541
24396 17643 35563
13830 21741 21950
36524 4169 18552
33844 29103 -1660
5180 13904 17606
837 10816 -262
13490 17025 14428
18643 13741 34101
2712 15449 -2792
1455 23936 -3358
32106 25092 20229
11033 11387 -916
35187 22833 -3023
33578 37022 6303
36309 31159 -398
33801 7965 -3424
33063 17084 -2357
9979 11035 -321
25806 37304 -1915
13936 7771 11348
21852 12441 31893
26967 36423 -3555
18651 36694 24614
24159 31268 -1695
17668 24951 9578
32863 14264 17681
5216 28941 -2509
6716 28595 24882
21438 8201 -2031
26403 27378 19498
31839 14755 3935
29372 27123 30415
25677 34271 5300
15689 13149 -572
30202 19436 -3412
8151 17909 -431
30119 26537 -467
3270 34248 6344
27641 3245 -1383
36713 22920 -745
32927 24605 -3566
20602 18864 30354
24689 7972 18891
36893 13808 4010
5070 228 -2013
3608 36443 -1064
8995 19075 9478
6262 472 36386
6223 12838 24616
14753 3401 -1793
16450 13389 -590
3366 33360 36097
17114 24301 -1086
26373 8335 14978
26360 8517 13164
7003 11747 -2857
11138 31184 -3686
35298 5314 -635
24737 25959 -1248
11997 3071 11964
7741 36123 381
1399 35749 -1455
18146 24858 492
20512 10573 35672
35489 2122 -1229
9141 12015 -3179
1287 15258 -2595
21524 10476 -246
25161 7411 22331
22970 27624 -213
8191 9243 7652
6616 34175 -720
36466 32813 -468
18049 11606 -580
20208 9194 -1062
18070 36804 21295
13727 31277 -657
37212 8111 37394
3745 10250 35773
37349 22557 -2106
29594 545 14206
24638 4960 -2126
14348 5528 -3323
26298 17056 7458
11106 1161 18059
23255 15952 35425
15613 3190 35842
25054 17711 20497
20569 7382 5241
27666 1142 -833
24041 26413 25915
5719 16871 -864
37029 16997 -586
3993 26947 16465
11363 22142 17005
10073 7559 6894
26891 11251 34909
11114 14383 -2910
17460 33088 22060
6629 27796 33420
28009 18554 -362
10271 11077 -333
25660 32864 35310
30982 35059 3690
4395 29850 21195
18424 13593 16901
7770 12586 18396
715 35054 395
34693 17611 30957
10103 23512 2322
10803 18512 -2862
5042 7985 -2537
749 14551 -454
11660 10488 37198
3119 13188 26210
9036 29169 -2638
7499 34183 35626
13989 34088 12130
1200 3285 -2586
26486 29235 35880
21265 34971 8984
833 25450 -489
33161 11351 15901
18645 24681 16787
24689 18550 -1282
35205 36639 36998
21272 7362 -3549
30321 27073 -2917
7992 3949 -2305
31320 10900 701
29920 893 -1919
11409 3141 25788
14358 12707 -752
6435 26253 -295
26997 20920 -2294
11141 6955 -3248
30704 9017 6752
28038 14771 33619
36212 930 -3423
6366 1229 399
5113 36250 -1350
28693 25383 -361
12031 5317 10752
10964 26104 -320
33806 3565 -1301
941 27795 -271
5529 5259 -1859
32584 35292 -67
23840 21375 779
5332 6474 2055
33320 9954 34557
7760 4276 -1797
10587 13070 -1052
30853 32191 23733
29873 31637 7348
18494 1935 27866
8353 35195 -63
25858 28134 -1879
5330 7270 33102
26931 19149 -2091
22211 23736 -2593
29994 21092 25747
3412 20758 -1819
2558 26668 26369
13707 2776 -2578
29333 9297 -397
31247 29154 5693
10247 26000 27412
30321 19320 4752
20795 16840 34004
16279 31880 23986
34842 35096 -1320
15903 26946 17836
17022 25546 7800
10210 13837 14522
8154 8366 -1758
18429 37083 -1350
10694 11540 27061
13074 27817 -1629
16550 8063 -2506
23995 15463 -2251
10945 6950 30192
14052 12904 5398
26095 26370 10472
21406 22085 -2450
3381 30364 25731
25421 11937 -327
24301 15831 17535
22128 33606 -2710
25490 33338 8257
21204 27171 29939
13384 24484 22678
31801 34234 -1662
25274 3919 18774
11727 9534 -1035
11573 14554 29823
34778 32145 -1507
393 22070 7335
24093 28673 8862
14993 34886 -2302
1482 28572 -2827
17579 18592 -1104
34052 10264 27101
6136 4224 -1180
24711 17895 -446
35534 17203 -1766
5340 304 -3484
11217 3891 1594
2016 20315 -3058
6194 16703 4730
2254 1850 11154
30268 11388 -1087
14579 15965 24360
23258 9816 20701
5095 230 -148
1224 16718 -2184
9182 27119 -3205
8830 684 -1007
24960 12638 27280
814 23442 9636
17067 21614 -2332
8718 24216 30559
34511 33327 6135
2239 13420 28493
27946 25984 24745
3157 8784 21370
4600 28451 3419
34079 23228 37227
1010 574 -3527
4601 13018 5532
34090 19182 -1250
7942 4968 6478
31088 16723 28562
2342 25153 -3709
349 31564 20773
22398 20434 0
29080 26880 23378
3739 17877 -2162
36414 4120 -3034
778 1466 -3088
25887 28461 -465
7764 26240 24962
31659 24496 -1465
27818 32949 -3026
231 31850 -3339
5204 10030 -2008
28760 32613 -1755
1515 28579 33179
25379 19850 4843
20086 5818 -409
19799 36486 14846
26974 22843 -1181
29700 8898 22928
30162 1076 -29
29680 27831 14114
24109 35248 3001
18602 28636 -2770
34282 35754 18792
23820 11856 -711
14988 9819 -2783
18237 2839 -3458
355 14915 -3153
16928 12206 -3489
17689 32349 29496
17070 19466 9148
7029 17554 -1696
7963 29328 -1629
7223 26491 -238
29081 34379 -2165
32800 20477 -1584
2383 35394 -3243
35090 34177 19502
21776 12720 32103
25525 1615 -1262
14742 30910 35383
637 99 -1172
26660 36129 1455
28372 5490 -707
35672 8883 -3059
34357 7581 1330
38 34448 -121
23659 18716 -3681
32419 16841 -288
3058 30063 17550
23690 10158 3067
20770 3979 8384
5261 30232 36509
26865 21967 -595
13856 12495 -3260
22872 5976 -1537
27885 3717 34998
29514 10593 8916
13506 21868 -3345
18151 15818 6868
6591 23566 11236
11313 25519 -2342
17506 9689 27289
17248 3317 26365
35765 18688 15422
31964 27128 -3398
1096 12935 -797
10352 3837 6168
3425 36903 3620
9044 27981 -376
9617 3025 11423
1998 36922 14773
33798 9779 7115
17601 14101 -3253
1901 33831 -1161
23376 1761 3384
24859 21704 -1639
1889 9424 -1324
8395 35275 31464
21372 19355 -2519
18470 34161 -3113
3856 13386 -2379
35470 26582 -980
21202 29466 -2008
32023 30242 36366
1586 29235 29945
24536 26984 -262
3721 25355 17425
26762 33813 33552
36410 19953 27981
27285 23732 1735
16443 9112 -573
33330 3008 -2115
20915 11182 8523
12627 28727 -3723
28523 25698 -146
8505 26865 -1213
21018 24085 -104
22309 26101 -2695
3945 24112 5117
34274 14777 24226
18450 22278 -2123
12632 5277 -3670
13896 2991 23608
28315 28478 -3001
7119 10183 12181
33113 15204 -2200
35233 22721 14511
16249 13771 -2114
7853 27939 -3065
15538 1449 -1713
28443 11939 -3321
8055 4451 -1331
15587 36004 -2642
32912 30556 23008
5400 13904 33912
22157 20687 -2885
9728 14145 -3657
18405 1754 -909
6785 16389 -1475
17085 33222 -151
19121 15634 21330
1598 931 4600
32125 11319 -561
1350 1091 -962
19755 10813 25656
17677 34721 34255
4481 9481 -2440
7406 32333 34702
26950 14736 -3125
27285 18535 -2438
6127 32781 29480
22835 34336 22783
1064 5689 34150
3489 34658 10582
7793 12486 5613
16952 26664 -2836
26268 12752 -1163
15040 27195 -166
7865 13527 -993
17283 24787 10872
23740 29685 29247
7057 25332 6366
33319 33492 -2871
33519 10742 -2290
30865 2533 29146
1874 27187 -590
1284 11047 -1281
24469 1041 3850
9361 28220 18218
27460 16912 23579
11624 30 -3685
9942 36513 -2366
22547 15082 -1425
4194 29060 5733
32299 20638 -1829
7701 12907 33634
31359 18665 16012
18047 35947 37042
20363 5587 17168
6993 35988 -39
23276 2702 -545
37486 37361 -1069
36487 19008 34767
15704 30555 -907
733 14269 -512
19844 5780 27988
15689 21590 28378
9786 26709 26054
4890 21739 21674
34835 35342 -207
6749 2470 -3140
25934 11828 9009
29342 29328 -2186
28148 1879 -3430
2725 9093 -2783
14371 24290 8139
1480 8980 -1490
9452 29166 18936
28089 5376 20451
15906 10949 20096
6707 26023 -294
17514 14247 10916
36893 6264 -1096
17983 37294 -2931
9530 17437 -3577
2378 11467 13179
28408 23676 15132
21963 17327 -134
25110 35598 12987
9787 19880 3740
28285 24083 32579
11327 14925 -1001
4402 23700 26635
23618 28232 -1473
32678 30053 230
23537 3329 19041
12693 26131 13662
28753 122 6435
18538 37393 -2517
3029 13964 2421
397 16119 -2258
24015 12597 20897
31323 15189 -3692
5719 21786 -1843
19175 14331 -584
34967 5644 17087
12338 37015 -1225
26242 34327 20584
23886 15491 -3487
24947 4646 -3692
33288 22028 36678
21951 25507 -309
1795 24985 -2841
21037 34204 -517
15419 9118 3473
28203 13822 -1394
17870 5837 -1775
29307 35068 705
21047 24363 33946
18320 24459 11566
3606 15588 5584
15873 35776 15725
1867 10382 31836
135 26300 547
32604 37279 -923
27780 9317 -3664
22703 16750 31585
9114 17890 -203
2324 28899 -2703
14512 1283 -2295
9396 24534 1237
24079 33830 -734
5597 21996 -2443
17669 1138 -439
31557 5799 21686
21821 20368 -3231
37 16480 20582
31652 17393 11227
30918 29550 23299
97 11970 21721
25134 3538 11822
24445 7442 -2134
17740 2018 -122
37071 3328 -1848
11332 3247 29568
19782 28653 16201
827 2738 37192
9858 36929 -1203
23555 9358 -2352
7086 18382 17584
34681 32664 -1162
8224 3386 35073
27888 26131 -2775
23665 23634 -2066
34707 17268 19382
12149 29921 -673
16577 27635 -2771
37063 34933 3776
22259 7149 -2059
33187 37262 31899
36779 33323 -3689
26443 1253 -2211
22524 22882 -3660
20575 23040 -3183
1414 23792 16
32012 23509 7456
33474 22462 7181
25215 36984 -594
32775 33248 -425
13305 22199 -2840
5633 6162 -3644
37130 16758 3142
29936 12073 11546
29120 12982 -1989
36815 13118 -1888
1442 16342 29621
7429 4451 34501
23443 31481 8738
18323 11151 22649
1972 9740 29555
9218 19940 -1988
34726 680 29485
8570 23047 -1126
34361 18756 -2886
19084 3747 12731
26530 1752 -734
9693 32945 20512
36395 21408 33903
20024 36593 -241
32510 34833 -1470
20680 8528 -1830
24940 9167 -820
28437 37394 -3630
25014 31203 -202
301 18350 32675
28382 2112 14443
19669 23286 -2791
30048 15608 -2064
30157 31533 13976
7355 24525 -1103
29162 19195 -3247
30432 30763 -2848
18990 12837 -2774
1566 14203 31654
11104 7367 3913
6602 36848 22813
14670 14485 4281
34384 33561 25543
12461 248 14384
14216 32936 -433
22222 31567 10016
23140 36767 36961
26578 921 -2231
9645 20140 -793
20813 25953 -407
2486 30290 -213
31049 15857 -606
34430 18458 -1624
29859 4739 18099
6487 35896 11066
16154 7155 -1705
19338 29151 -907
3388 22492 -2846
3426 14305 -3218
17716 8623 35814
18646 24702 8339
15193 35527 15390
2687 15461 14261
9341 30409 -2970
19060 22169 -1090
28728 6765 3880
11379 17295 22526
27098 32808 -130
37472 10418 -3483
15101 26748 -2513
18581 27846 14457
9159 2608 21272
3909 30254 -886
8356 10241 18870
20877 28532 -910
35163 11667 28310
376 16311 30714
30354 20488 -2389
10175 7255 -1407
27915 30495 28758
21352 19990 -1461
9173 9921 13685
2 11671 7353
29569 26826 -2348
36882 33263 24875
10371 6249 16864
20053 30841 34325
28285 37235 -126
25869 7346 -744
5485 14985 -3679
34968 34000 -1163
13466 28631 6586
8467 3970 30339
23957 26215 2126
36795 25356 19826
35981 11134 17761
24783 11455 -2985
9642 16807 -1755
35221 29335 -3091
7274 34063 -2095
10655 19919 32790
6378 8716 -547
37407 13067 -2436
34119 15973 219
32937 8543 16050
14843 34266 37415
2886 8054 9234
31090 17437 -1636
10754 2746 -2879
8000 31076 -2714
8262 6956 -2863
9370 16073 12463
14446 24654 26443
17232 32642 -2389
17556 7507 -1412
7201 18914 20223
29542 30595 20193
12348 16765 -3266
35377 33943 12119
9820 2069 -3653
22926 26757 20324
30163 36584 27879
13645 33895 -2897
5617 21895 -445
12682 34337 23442
5256 33709 29062
32389 21644 -2446
30950 31715 36657
16223 36378 -179
36431 12936 -2553
29708 5794 -2290
34381 34671 -652
30362 22105 28776
6201 4939 3812
10920 33494 34088
1398 8197 12522
20979 36189 -3112
5209 22708 -3002
21676 27398 10129
24566 18712 -1460
5176 9209 -2492
32003 30707 3577
22612 32412 -3195
16175 17650 -899
11149 20733 5103
15081 18162 24793
28026 9145 -199
7129 10855 -2841
28170 33329 -1431
10347 15859 -2931
1123 31002 7661
13193 14791 34931
34905 25708 33380
31181 14427 26187
21965 6418 -554
26046 8917 6252
23371 36652 22235
29458 17315 2349
4243 12591 -889
2962 35161 -2185
19038 18923 -2038
22289 1982 -2084
23700 16226 -429
13115 36950 -1597
26336 34003 -1979
2434 1900 -1823
21943 25144 9686
25288 16643 30212
21873 28459 25846
36391 15202 -259
18625 26598 36000
30957 5900 -36
5371 24848 -3092
31482 9656 6390
21948 29818 -1385
5689 20152 -2412
5012 18858 -470
16050 31764 -2793
24875 22280 -2820
28018 28093 -2914
27522 20840 -1867
1208 13795 -586
10250 2236 20239
22021 13508 25083
22942 24128 11459
13866 15421 -3733
30801 26467 32025
22061 24837 831
13334 24501 -3641
37056 20506 -2450
35986 36334 24068
22305 36132 14509
23172 32664 35563
11214 29009 -507
25000 23719 26515
21340 27729 -2053
30199 27053 18858
14976 3728 37354
22304 23599 4070
23136 29250 8279
11708 14775 -2483
3313 31524 2045
11561 15972 30848
18807 22254 25580
9724 36947 7820
1613 1580 -545
19719 14581 23776
31647 30746 -990
13908 21371 17180
20155 13010 26252
27792 16744 32833
18281 9321 -2992
22378 20687 28530
3396 535 35946
36613 16725 13804
14054 23965 18152
13558 21939 -678
26811 21261 28271
7598 14014 -1880
27955 1531 -2042
5650 30617 -2998
7465 35292 22221
27189 29961 -2715
31390 6799 -145
23392 21471 13954
16958 5283 -2144
37157 33337 -3698
12208 29422 20942
24146 32628 -3264
9341 21758 1623
21820 30523 -843
10316 10844 8133
6620 3271 -1746
1257 33179 -494
17049 33587 -1190
25760 12237 12151
11798 35192 35435
23221 16794 27248
32386 35240 -3605
25342 1813 15218
10237 33308 24881
26552 31500 -507
13536 888 -1518
25228 9801 -842
23310 15532 7219
17321 359 6535
35873 29396 11665
2613 17995 -2180
16743 37216 -397
20151 1488 -3537
503 31069 29539
3906 13967 9306
12146 29658 21274
5387 12565 24599
15323 13319 -2427
2610 27554 34836
30424 26115 30701
32597 12785 29349
34879 5741 -3465
27166 7300 33648
27828 35423 -2845
25058 11392 11255
22833 3110 26345
33535 31132 -1995
27393 26597 23810
13608 24321 36153
29584 5046 8819
13248 17155 37115
17664 15609 13440
4464 5593 31963
26643 14792 6284
15680 4854 -2946
12446 16957 14140
3143 9509 28007
32731 27858 -1832
16534 1925 -482
10665 20473 34050
24123 26144 -1446
7534 23095 -1538
16256 4683 -1786
7799 10609 15731
34948 22077 22307
31634 9537 -3281
17766 34287 10472
16140 31585 -3616
12397 3450 34994
35448 11714 -3564
15715 22878 34114
25372 5210 35439
33517 8413 -1806
17238 11262 27122
29370 10954 -3686
19113 34049 31884
8581 32514 32202
15041 35904 -3335
30117 29706 29967
4654 19136 -2239
10813 27322 4651
21193 1023 -3037
16275 487 -1044
13568 33428 -133
32351 26549 -560
21457 35724 18800
5390 13136 -1839
23106 36874 -2310
30864 11667 -588
8421 26573 15231
32689 23666 9222
33534 11714 2870
27424 37475 5563
19592 14483 -1024
32604 8759 -354
20240 35534 27556
16132 30847 12071
27100 29884 20073
13643 3428 -3748
27253 37222 10203
33480 7719 -1267
14997 20510 -1445
36375 22508 -923
33034 32253 18697
129 20827 13335
3303 20076 -1979
22998 25534 30319
26268 32103 -657
25705 20162 36691
6555 20912 -143
33532 4003 10392
24080 31116 25442
28546 21667 5101
24575 5221 -160
35930 32825 -616
13994 16316 25586
3371 25450 -1689
30693 17083 30328
10727 16377 33658
22514 55 -2852
8498 27697 -2389
4227 2434 -2491
10630 36473 -17
37182 21721 21440
29189 24047 16496
33901 21730 31382
25730 2949 6861
20773 6023 10171
18209 5923 -2786
19378 35771 -2734
35213 24144 29726
32432 6325 15419
11156 8955 993
16506 18574 23692
2597 8109 -2511
23944 33778 -3413
9099 35775 -1147
35110 18890 4239
4791 10494 -429
11569 11009 -2104
13784 24134 1818
7668 3330 -2122
12152 11438 9882
21894 24885 -2188
25531 30683 34578
21417 6091 27438
9148 4345 -556
16075 32143 14036
14429 2829 30584
28365 32400 3651
15964 15582 16176
23779 1189 7454
1245 10681 -2976
30259 24197 -3742
33071 7797 30457
16414 10528 1530
17147 20149 -2042
4084 25203 860
35286 5355 4276
19017 18495 7357
1343 7893 -1226
31424 14771 33849
30363 11709 -862
3730 7187 -992
31608 18844 -1169
19959 29315 -2690
36949 11265 4194
35332 21069 -1677
3021 2475 34016
27564 25517 -750
24226 26110 34093
30574 33297 -2015
4179 6119 -3155
6239 7286 -1858
25129 10465 -2068
14917 3017 25420
1605 29523 -3388
31489 17842 29535
23019 24490 9565
16212 22834 26328
15239 6032 -79
21337 22489 442
17055 22289 -866
34483 4713 9834
29875 34170 16696
4365 9263 5345
21946 20642 -1601
13812 27943 14155
23064 2969 4607
31124 12067 -56
6039 14042 -741
14408 264 16373
367 24750 -1069
2874 10652 -2400
8007 2105 -2480
12799 1480 -1423
35461 22799 23834
10919 36266 28132
20446 32418 34698
13342 1713 18976
27914 30943 -1363
7832 34632 -383
6315 13720 -3588
4661 7508 18332
34900 29110 13791
12682 6459 21465
21940 6923 12634
3895 14985 4275
32662 30855 -3702
36369 36692 -2766
31938 4649 -231
9741 24320 -3449
29961 19945 -3211
25114 29161 -3563
11877 8471 31863
27011 22592 10371
18469 18802 -3357
1356 24284 -1138
16066 30430 -2102
31732 8072 4703
16874 14049 31423
31062 9321 -3040
3560 5442 -3644
28632 17745 33344
32523 803 -3610
2406 35231 -3207
8002 1965 1472
24812 25625 -3409
35937 5907 -1306
24746 32705 12955
4672 16511 -2086
19928 36711 32878
32453 3394 -2177
36832 12641 16857
26198 22668 2293
36806 2753 19939
11850 13984 12704
17686 32780 34146
33311 13377 -2827
2904 15160 8254
35772 18346 26739
16235 24600 -3122
35712 24326 -786
30157 2096 -3268
31647 26325 33005
7097 3879 -550
8184 29348 -1374
3929 5966 20287
24852 31963 -1436
21042 12895 37343
16402 16822 13142
27419 27350 16135
17155 12116 -2373
18933 4347 -3617
20224 36191 28736
25041 17912 -2304
5499 24164 20327
9822 28053 -460
27915 16236 25487
7685 33860 -100
22545 9478 -3411
5479 18611 20531
14984 6785 35282
25093 2309 -3256
17356 24576 31813
1780 23368 16647
256 1073 34908
19145 16811 12024
11979 8862 -3433
2465 29748 23123
16296 32785 27601
36212 4673 22198
10720 12609 -593
24619 31178 -1587
20878 13862 14682
16978 11749 13785
35040 12369 6809
34465 3363 -2516
2565 33152 288
3579 7005 -3608
30312 33587 4902
28558 8013 21070
34324 9510 -2787
36514 10823 3150
19709 3372 -135
12672 5208 -286
25400 1736 -1865
13204 33299 -1306
29267 11794 19784
17561 26142 -652
35000 12171 -621
12573 6695 -701
26239 31418 11387
1179 14942 -3395
689 32689 -2324
29307 9592 -71
17991 33257 -941
16157 29436 20366
19527 3754 12109
27780 16560 -3186
34137 26659 968
5774 33973 33886
31968 27218 15783
11996 22628 35456
13526 29450 -2603
6964 7945 34704
35011 21617 1990
5729 27417 -512
34927 26871 28804
30247 17402 -1218
3202 2099 13071
16742 34896 -1020
22618 6571 15340
36615 10491 -1602
2117 27020 -177
19013 20503 -1281
18349 5361 -611
35264 35756 16390
11981 7363 -527
10005 23922 -1600
3010 23043 -2882
2258 32496 -2971
24102 5065 35701
18508 33733 -3570
32631 35649 -2283
25193 23424 28079
35520 26652 13719
32190 28089 -2502
3147 11929 20902
14159 2048 14169
9820 11905 -1248
9830 34270 19149
15896 17121 7963
5450 19002 13362
21612 4675 33727
30947 669 31782
6408 29454 34394
5308 24276 -2829
12392 13054 29136
29318 6082 -3236
25860 2288 29825
24410 24048 -652
1557 30583 -1887
6850 32024 -1698
27515 36587 22493
19328 21326 -46
2892 27927 23419
1228 4678 -950
9349 12039 22947
12380 37343 -2410
14136 20473 -2629
1594 5120 1883
34062 35966 -2367
20364 6033 -3451
8121 19970 35830
12343 28639 35807
29392 18488 -2310
32595 34457 -3167
36474 9087 -1878
1900 36790 27234
32605 33385 31665
24828 32798 27455
15866 32146 -3628
32486 4336 19333
4533 15954 -2447
16216 19498 -482
33771 7745 -3173
16098 11176 -13
1952 34268 19065
20006 25967 31349
14548 19743 -2519
35950 11183 7558
34589 15526 -1974
20408 1024 5449
13449 2962 -1603
25266 35485 19495
19056 27696 -2
1952 36018 22901
14124 6965 25124
18209 15399 -3100
3360 6060 22048
22028 36763 -1768
2836 1870 -3161
10205 4329 1310
18512 30606 -1919
30283 685 -3501
11788 19501 30335
10221 9468 36808
33580 34444 -2888
9997 29184 33728
12130 7696 12811
19777 27927 5959
2492 13612 -1925
9481 35783 31975
12495 15795 35225
30958 27617 5098
5255 7458 7933
37085 905 27363
29577 12002 27513
14294 19428 28260
35000 21754 -3329
23678 15962 -1404
21875 5025 17652
25077 24785 -2295
23832 6662 -2465
4161 27732 5257
3675 1143 -3295
7810 18183 34076
10519 35473 -177
24971 6038 -2013
5762 13665 -28
18223 350 5916
22075 19698 14575
23991 28665 6768
23947 23585 20918
27801 2237 33463
19368 1856 -358
36031 31603 20347
1669 26648 -1525
24211 6097 37474
17445 4814 24206
1314 29053 1096
2262 2040 -1192
2512 25697 8024
12047 13143 4652
5608 12282 17264
32505 37158 24398
26723 510 28671
19191 31887 -2476
25157 6425 -1844
7797 15490 -2175
6343 29671 4384
26881 17963 16475
30507 2420 1307
8274 34194 -1955
8906 35346 -1441
28928 24370 -1649
32566 10795 8827
24058 23803 33111
33987 6347 34220
3116 4069 17997
19450 33633 -3610
33603 15824 -2145
3089 21413 34884
8634 30903 8945
8465 18986 31806
24685 7735 13621
29793 935 30855
20428 11032 17972
18016 2148 30351
16041 22864 29751
33704 17637 13704
14681 22219 21082
13625 7926 18608
19590 28870 32946
6668 1126 18374
32231 33509 7360
18256 2811 -2619
17517 31561 -3158
24702 4867 -2395
18635 4053 718
33536 30631 -2638
15698 28223 30034
2758 22426 12475
23956 29410 15124
29744 9532 -3294
29727 9861 -2477
25555 11030 -2725
34070 2534 30157
27246 13552 -117
9871 24877 28935
9222 22455 24191
2239 12176 32732
3470 28027 -2736
16473 23168 28162
34936 12760 -421
36994 34457 -437
152 8505 1504
26559 25205 14512
22722 1636 29201
12133 23073 -3588
32219 13121 24002
25328 32517 5476
27771 24283 -1616
9907 32090 6623
29335 18121 -422
18030 23069 -198
18931 15178 22174
24091 8912 25054
35372 33780 -465
21410 10676 30094
33538 32113 -337
14721 19382 -2385
11618 16429 16714
5444 18069 -2257
28495 7507 -1075
23633 35267 -2507
33179 4882 -2387
15469 30811 -641
30052 29196 -2629
37117 30874 4819
25256 19242 -2466
19205 21498 6294
6369 3972 -3295
23452 21248 16385
16566 7690 16012
18817 13693 10885
11838 17365 -3546
9002 20429 -1549
7538 15253 -3548
12295 31450 9009
17301 34228 8907
23088 20832 27623
34503 34497 11101
27618 1625 -3511
7777 4187 991
20418 2965 16334
24307 15529 4632
11063 25679 28698
26378 2195 17562
9000 22859 -1564
153 23101 18722
7810 35300 22492
7624 35048 -2852
15978 26072 -524
24040 5688 33361
14549 9677 -2135
14806 35677 -3572
3131 30126 -1969
24113 297 22630
4871 17688 -624
26816 6752 31460
4841 30065 24829
3397 5880 -48
20296 27330 3151
6601 27971 -2026
16317 20995 28903
10530 11039 -2096
27838 31418 -847
13129 21486 33061
9518 3888 -44
21839 25122 -3219
6448 15814 32247
13390 5938 28656
12670 13136 4714
1076 26538 9527
32590 23650 26005
25599 9304 25528
5256 34543 22162
6859 32499 27498
9803 5525 -1235
23330 5045 -1267
5703 23757 -3438
890 8484 24526
9170 23326 14500
22236 24214 19000
17145 23295 35774
6068 691 4662
18078 34140 -3382
9309 15389 11566
35963 24980 -2360
27429 13929 24731
30983 21534 14664
26094 30372 31467
33045 37341 29833
30833 9363 6491
16965 30637 29691
7140 9989 -71
30251 11602 15072
33814 15225 -3483
28444 14252 36122
19887 18507 -3057
21458 31396 -3380
14670 15514 16381
29536 37314 -1559
30819 11262 31328
27064 10876 -2566
29396 28306 14676
37330 1333 33322
7465 2948 22922
3301 14021 -1001
17322 27333 24395
3372 2928 18488
34400 7176 24563
24724 22156 -1972
16155 26971 25364
20497 4241 -1127
13826 35660 6644
19882 27526 28695
4429 6072 31868
28932 31886 17803
1165 26320 -3477
29134 24628 85
1504 12795 11845
29580 8558 -3187
20972 20682 -1984
3526 32411 34586
2063 35724 -1307
15236 19235 23330
16823 7452 16140
25848 22484 -3221
31002 6552 15795
14220 14813 4755
5641 26857 -1025
21401 21159 35923
8222 18711 -2909
22941 36254 -1147
34484 33708 2881
2794 24276 -80
11068 25364 -3471
20864 35596 -976
12963 14497 -2617
5472 7932 -2457
34173 3746 25917
17538 17748 14811
22273 12007 36265
10694 1149 34730
1666 17439 -1521
18698 8210 10123
13930 4345 17902
10896 34573 24630
24125 13324 -3703
29916 1671 -1562
6967 3553 29465
21914 11071 -2587
27773 30553 35214
27584 18190 -69
5261 21365 29843
33026 4368 -595
5051 35665 12609
17221 6398 -1939
32288 27068 9033
20748 22491 -3100
1040 3363 5980
17332 33299 1880
34015 14291 10742
33081 34243 -656
34838 14190 -2446
29488 2384 -805
21293 19222 2721
23495 5367 -1905
17969 6249 -196
8065 547 -831
22985 20918 18868
16212 34710 -295
10063 21244 -805
26624 24148 11578
7353 4037 1562
21629 2188 24866
435 17582 22121
28230 29621 35721
6307 19662 24956
24974 14891 -3446
22688 8532 8465
9672 655 -1650
13191 6403 5851
8603 20623 -1602
13028 30868 -2588
8691 8441 26386
27814 10731 -3720
3886 13680 25868
26386 18660 20242
8401 1942 10659
13475 21387 22422
14763 17807 -543
32964 20715 -2014
29610 12427 -1250
30470 3940 27055
30071 27104 -2013
26823 33665 5660
22971 1429 -1192
30311 25026 -1233
34056 19126 23215
9645 25628 28193
8323 15957 22910
36434 13726 32028
27230 12082 14745
36884 20733 28666
734 10670 -3016
3111 37244 2019
32018 9 -1139
18582 15102 -1309
34293 16163 28061
26117 167 -3428
3837 27985 10905
13920 1836 -3721
13935 4085 -1738
1131 5070 33015
10277 4492 -1426
27171 34309 -174
24899 37162 6287
23905 20389 16815
17612 35105 34446
16749 14840 24745
19910 28989 32304
6014 28146 -2679
26820 9711 -1577
12778 22453 7158
36087 7418 28875
32341 11513 5716
26534 14428 1983
18333 16225 8835
22811 32975 -643
28705 5605 -1009
21408 21354 -1267
26891 17404 5419
2815 5025 -2911
5948 35391 26563
11022 1463 -2590
14275 28659 24584
23178 5625 19334
5197 36271 35243
13998 3287 -1197
25168 36066 12819
34455 8300 18274
36184 26576 -2039
15585 26317 16839
20750 10128 29113
17067 17987 -2133
22046 30701 16064
21409 1308 -3137
4837 16546 -42
30513 28381 -1482
7733 15049 -2778
11609 37422 -664
4297 10656 12357
4330 32890 13576
34489 32176 36529
25593 25004 36887
19250 35901 -1285
36578 35747 -3536
10984 7616 25694
9095 28851 -2587
10638 22724 -1360
36259 17026 21992
32240 25642 -2898
36912 19168 -590
36572 5437 -2128
341 27537 -2764
3096 21357 -2865
17750 21993 -2576
16948 13266 27843
35841 22937 -2848
19518 27477 -2877
22878 25378 -1713
36099 31485 -2424
4251 16805 -2123
13696 34927 30628
13356 24697 -815
26027 19666 618
21213 6864 -1020
16517 322 -1424
22548 10551 -1675
37218 26505 -1233
6830 30666 23271
4185 14141 -2301
16157 7648 -2960
19905 12984 -2894
35492 11711 -129
32792 14996 29254
26384 15729 25987
2426 33544 19477
3864 27389 9542
31325 12706 27481
27504 17371 23452
18878 21494 397
25689 14516 9163
11242 23332 -2447
4651 26897 5393
36735 19356 22391
26333 7038 32580
4128 34818 -2262
12177 8456 28096
18241 6687 18161
33812 18494 -2915
13541 30523 -3537
31862 17545 -2414
2385 12424 -2417
6202 36609 -1696
17979 27086 13893
2687 37039 -3689
19065 4777 -3286
11159 23771 -2974
7357 9959 -3487
34921 6130 1014
317 32307 -2201
19899 19101 36248
8323 4540 -1264
7380 33735 -1715
10096 14767 -198
4409 8928 -416
34977 1536 14596
6686 26139 5024
26117 675 -2502
10847 18532 17497
10881 34418 16224
12366 35488 16645
256 2668 -2307
4616 35404 -192
21147 12336 30304
11132 10495 14200
33915 31653 15610
7368 8980 1769
20247 34919 -1053
25220 34708 -1703
7337 24525 -2319
19197 32665 -141
27597 16633 -371
37094 12696 32329
7571 5175 33173
5961 35103 34356
37008 21060 -965
1225 16034 -2876
36488 33430 -2042
29182 25834 -2165
3315 18103 22317
33534 22404 15326
3019 3690 11146
3040 28599 10609
22343 3505 -3708
16760 29007 10334
7427 19098 27725
27418 2871 -1290
1006 23587 31013
11057 938 -2232
20201 19208 5499
27863 23374 -591
18011 20652 1948
33931 5100 5051
10289 29524 20310
25947 37104 32427
34681 12707 -2376
5209 13168 33881
2409 288 12030
33909 2440 2477
12800 37136 -2804
11151 35969 6260
3771 31760 -3546
15390 3550 -3628
21691 3479 -1652
28132 6083 -747
21074 4500 -2950
20876 8153 12048
21737 35718 35332
4623 7730 -611
4380 18232 -3340
1302 356 18025
11186 22447 -136
9796 4333 -1888
17170 3640 8
683 1820 22959
20668 21797 2047
31094 23635 -1744
16618 18261 21632
8819 33136 -720
36522 22888 36860
37280 169 8692
34558 7900 7104
26080 16588 -633
14572 34685 -2519
270 11240 16885
30475 1268 1272
17399 9468 8003
22791 22845 -3158
10188 132 27393
14067 9704 -3221
32907 33267 2254
13327 23388 -1341
8136 30169 3132
28066 10808 -1484
27710 9593 -560
9822 4482 -684
30836 16177 3793
36730 12492 386
1469 17503 -3734
13346 17267 -341
10703 8200 -1740
1214 33749 -2477
13667 34828 32307
20260 17422 -2231
35162 15612 2445
31216 17505 -2867
11973 15051 20324
32878 25330 -2826
10216 6547 -3674
1600 15408 -801
33720 32840 -672
26292 35904 4766
15751 14295 -1348
32308 5947 -787
16093 34853 -366
19099 1223 -550
29633 5685 21517
22117 31359 -133
37397 34240 30935
3117 20225 -2703
25872 25075 -72
9696 3052 -2839
21518 34813 -583
33031 9130 4622
12843 20393 19740
15286 27556 -1403
9808 31560 -3678
34511 33105 13131
15891 8126 28890
13731 37220 823
27405 32196 32964
7415 27738 -1374
16729 32845 27288
15751 24974 -62
19688 13002 -1155
15840 35033 23171
33823 35760 6889
32548 21935 -3092
32317 23658 -3083
17166 22518 23908
34518 34520 26372
24660 22455 -1124
13206 6434 -2024
24684 12669 21274
26992 24215 18715
20205 2755 -1480
19256 13871 -1959
4064 31632 -3121
5191 16170 14522
31208 19829 27614
7965 29208 4516
10625 31345 31293
10716 6034 10916
15125 23568 22506
33874 34738 31323
32627 34980 -746
10842 4398 -2819
8886 11742 9878
12678 2174 17898
20602 1300 21015
28029 11744 3457
1254 14434 -3386
10235 13056 24042
4752 1918 25834
23865 5118 -3361
7887 11155 -604
14563 12520 -2687
6728 3376 -661
18010 13951 27823
12455 34258 -2069
31543 31999 -1018
22054 18627 -200
10263 3297 -2760
32048 32642 -2101
14716 6985 20711
8125 24450 -1111
19323 22183 -3239
11345 32736 24110
11653 11139 -3535
34081 16928 24405
820 17785 2389
1255 11165 -2084
12551 22795 5501
33599 15096 -253
13554 8307 21058
14418 10371 -2704
4086 23415 30281
2583 28612 31035
33093 17384 -2721
6423 22039 -285
27864 23992 6233
24339 35860 11639
3050 17567 -3022
26900 7170 9372
24663 19377 17654
3005 2250 -3451
34376 6306 27490
10524 6409 29681
22914 18353 6570
17374 11769 -1596
4265 12634 2014
10038 30264 -2531
21879 34197 17342
520 12716 -1312
24876 19008 36840
16575 14437 -212
4907 15822 -2080
15624 4079 15575
6920 13059 15886
14075 19265 1923
3737 12459 26882
15831 36258 -3009
26494 3434 -2881
4018 37106 -3671
19654 28648 11865
35645 36776 9664
29564 29251 -1838
17360 11377 201
30143 1809 -402
17405 17750 -1260
36728 25764 28697
32030 21257 -910
26691 35721 -2292
28575 6343 23061
29735 21676 -740
23188 7271 -2286
3410 15207 1193
25536 21476 -2986
35782 12225 25440
8907 31273 12133
36130 33367 -544
1600 8500 307
37354 6814 -3131
27236 14891 -1143
22664 22536 15062
18839 33202 -2491
27235 37171 2406
15022 32934 20224
16972 19473 13504
28174 18635 7104
19742 34815 19724
5169 5641 -486
2023 24398 35180
35926 31865 15155
16548 20433 1869
5841 25672 -2607
24398 15049 27853
19651 18510 21133
11398 3764 19369
12831 9495 25139
9667 30110 -2895
5686 1238 16665
8769 445 2667
34980 30688 -1072
12924 5408 -1268
2374 20394 -2499
1573 20344 11565
35382 10876 -2239
6868 11149 -3661
16279 16231 -1298
3413 22277 -3518
36429 8022 -3684
12365 18131 4166
8901 32102 12352
15866 4872 13360
8118 14398 23462
20705 6556 23212
35282 22603 -2603
13216 34643 29374
36482 29907 -3161
34010 22721 -1979
6133 7319 16056
8034 13489 6525
27742 12281 14426
1886 35958 -732
11020 22021 11471
4067 32577 33264
29047 17421 -1752
36837 13553 34510
6950 14881 -1326
8846 9162 2170
10853 13797 11845
19101 20807 26123
22258 26318 -122
30145 20250 25186
20786 17285 34616
2086 1876 36557
28024 31432 -1642
15698 30398 1693
19260 26011 20877
16048 22229 29053
14817 19336 -2426
22515 16157 23879
31209 15360 21666
24475 36798 -3407
1228 13937 -3199
12776 19525 -2275
31863 36174 -5
34501 23743 7621
5485 3749 -401
31754 6689 15978
27499 19064 33052
35987 36776 28788
37447 14438 17032
18668 9547 -2640
1542 32354 11716
14053 22372 -2038
13513 6774 33423
22243 2865 -2521
24121 35197 -860
6212 22230 -3578
34040 14360 -1846
12849 33263 365
1592 27386 25925
17630 12659 -362
36207 24664 -573
24402 28500 24793
36873 6194 26358
14692 27487 -89
14306 7303 -1599
24344 24102 26162
27168 36926 -459
3222 31180 -3256
4354 12346 296
23583 26931 -637
2299 16817 -468
16427 10821 -2394
5545 18192 30471
12853 2444 -1537
19475 9444 36659
11488 12718 25456
19310 2733 705
11457 5531 36399
34396 16546 13664
1839 26499 -1987
26827 5430 -3724
29263 11100 -116
37199 10361 8644
31124 4233 25471
21106 18396 19137
32723 35428 16772
32487 23229 -2326
11582 5114 -3320
33091 35317 -380
33888 234 18637
18954 24966 -1947
30001 32856 -1337
23180 17239 36792
32294 5005 11548
32627 26259 -2717
2822 8438 -1644
31968 13210 17810
36014 5369 33853
24604 28059 -2749
19331 8906 29581
16861 14113 -1485
15269 7620 -3175
10653 21757 -3703
27628 8096 11779
21196 8531 -2930
14776 20297 10278
19051 14718 1937
29805 7787 -3652
15457 31352 13571
26989 19745 -2819
13174 24180 5062
15332 5852 -3423
22634 2667 31081
15606 21299 -1338
10310 8910 28135
20848 20759 15037
10136 20096 32556
14307 22593 20916
31877 34268 -3391
16176 11908 -1294
6214 8584 -3477
260 30646 3582
33078 6547 -656
30899 2619 15802
26129 35712 3453
10459 842 33690
27104 30372 -3558
36415 6540 11636
31295 8033 37317
24898 19170 -1163
18740 21587 37311
29535 11193 24313
6125 28983 -550
1629 15891 -2865
34174 33839 -3311
5289 26324 -479
16638 12114 27047
32766 36015 8031
2685 20090 -3271
34364 13225 -2506
24492 14509 -287
5440 14018 -1912
9941 24098 -1131
29694 33907 35537
28984 8523 3200
14658 19047 23646
8204 6448 -1396
3777 36598 -938
6579 11730 29935
1727 32795 13653
24203 20815 22156
8522 20018 21501
5671 16551 -2493
1899 24449 21025
34666 18477 16947
10396 19285 35825
36504 35060 -1802
24947 9963 -3282
16727 1282 -687
14155 25407 -751
7613 20872 -3474
22634 383 -264
16361 33065 9089
8650 35577 25073
22686 14220 -1244
7366 31545 6138
12097 19862 24315
5282 2559 12364
959 31821 121
13400 33223 -1530
26468 2412 -1875
13721 4367 -1130
16362 3029 -351
23176 14597 32200
8160 18311 -3698
37011 35726 -328
27508 20195 33308
37022 33785 37217
17855 13232 -2417
839 25401 3220
24538 9456 -3164
18153 15385 17459
22820 21914 21654
15331 26138 -2546
25051 7693 26367
15718 12532 -522
30811 1960 -2361
2714 4191 -610
22939 8179 -773
4556 9384 23528
11305 16864 32170
9759 6375 15541
1092 23836 1438
7228 33433 -3748
33269 35476 -3695
3193 18929 -1222
9416 2622 -431
4845 28382 -1527
23180 26138 -288
13648 36635 -2729
10592 5856 -2229
15782 13570 25087
36039 34196 -3167
34611 13178 21368
8512 11475 2516
24514 19059 27170
23355 10586 8089
13672 34235 35180
5566 7636 168
18490 32182 68
26167 3451 14794
19093 33108 -39
5596 8488 -2216
12772 21608 30942
29736 14054 -288
35614 21437 18441
16049 27150 27926
27108 15151 4564
28158 36487 -647
3258 20705 -1026
21541 13178 -1075
1489 9436 9152
3773 3026 -1033
21402 5564 -625
15602 15236 33962
14697 31571 -1803
31692 3456 -1689
8231 29463 2063
12256 759 -377
7362 32435 -3073
33175 36391 -1885
2779 12023 35411
11575 698 32049
28331 15966 -2302
31777 20790 -3144
9584 37180 -2722
19842 15370 17977
11649 12847 2231
5772 21499 1285
6829 28423 -730
13581 5429 25674
745 22392 -1680
17161 17856 25052
2549 12246 -2115
29510 21028 -1553
23959 19890 -2305
11705 19651 -2626
31826 17983 16399
4484 6049 -3279
16745 30712 -3744
2198 29953 10083
35379 1654 -1614
16495 23747 18252
28496 19160 -2887
9580 36816 15371
304 14120 -1847
21789 12576 -1577
22146 23582 -1143
31598 31356 9517
3402 16011 28214
29979 30306 19161
18053 19811 2937
34690 8432 9641
22497 7391 4835
19859 3838 30815
2347 35366 -2221
5138 17040 26882
24098 26478 -3188
9219 17456 15240
26105 12979 6517
35017 28678 -1986
22351 28105 1818
19729 9691 -3208
22754 24097 33736
36645 15179 -339
23035 31007 8110
22831 35604 -2353
21120 19718 22847
15725 8960 7264
32777 35229 32432
33883 10348 -1220
20313 32121 27999
5191 28859 -2469
1394 12521 -1362
34904 11600 19957
33472 34174 18792
5063 31563 -1492
7097 27811 -3379
15949 18765 -3574
15789 18386 -3263
36492 32575 28860
14969 25548 -848
4751 12043 -2246
32210 13848 12471
5942 33422 10242
15344 23368 18673
28966 34834 -1678
27436 4700 -2581
1682 7419 -3177
1528 8533 -3356
28616 10524 7403
27117 14531 -291
5905 37332 -582
704 15651 -3153
20788 26872 -62
9449 33672 -2879
29881 28124 34261
2506 10595 3553
22467 24781 -3407
4132 27657 7401
15040 27232 -376
35982 15003 7351
3231 17819 -2813
33300 3407 37368
6354 3188 7219
3196 18594 -1394
12276 26877 30594
3062 14838 308
34398 9449 -751
34306 31200 32832
16963 26452 -2487
33326 5045 36347
17426 12959 27528
8864 5048 -713
20965 12973 2204
15456 10327 -2199
10075 36441 2142
30156 24025 1330
10724 18357 -587
5468 9937 -413
18002 15333 -1375
30756 15120 -818
10615 3711 5031
12799 9600 -3466
15643 12702 -1792
32014 34487 23709
25232 24564 25212
37016 33224 -1720
14077 22044 -1835
1414 27004 7620
570 20317 2763
16032 28703 -2811
9737 13022 -147
27636 22530 -443
22365 4035 -483
33410 34996 -3237
18855 7176 -2293
33820 24349 -3582
17007 29263 -2716
14204 25597 10110
21936 24294 11309
8304 8898 5077
28199 20112 -1990
17737 961 -1865
27415 5827 -3615
13714 10917 18865
24133 10229 -1924
21814 18877 -2146
16035 17875 28685
18868 3317 -3277
18753 1009 -583
32989 27540 29497
19402 6156 15443
7314 4817 -1309
6503 33267 -2181
20872 15905 -3656
32029 21900 32724
16687 23009 -3028
22343 24715 -2798
22585 36766 -1836
6358 15939 5136
31035 26061 -3461
3473 873 -2398
3112 33021 -303
33233 30257 -1016
20270 24625 -1476
1449 15580 15054
5436 20332 -1795
7818 9063 3907
32954 13191 6704
8607 22667 -3099
22109 18772 25323
10926 13772 2764
5792 27474 19515
36393 22265 -2334
25579 5717 -820
2690 25205 11741
29313 36475 -3186
8512 30094 -2710
8984 27766 14601
10568 14680 -1180
6425 14635 28301
14883 3130 20266
3183 1869 15358
2065 23527 -1767
15289 12715 -1238
25770 9832 -1816
14351 29127 28732
3857 30358 -3002
33577 18540 1505
19209 14223 -3588
33966 19684 36200
625 4230 10085
35689 35264 8124
7007 9778 26095
12849 5662 -3232
34092 24245 -1057
8177 17397 -137
1228 25826 -3096
33369 2143 -3303
32620 7125 -2495
27876 10557 13744
7549 18463 -3586
13845 4665 1616
32752 9320 23402
14915 31684 -3268
36817 29922 28458
15676 21606 -3013
25082 29688 6084
10199 33688 27845
2269 28043 -117
13613 12512 29743
35349 25660 -2424
34928 27044 35144
22629 19615 4350
11583 3725 29366
32315 26514 -3647
9401 14363 16707
23601 17542 -2796
28243 18735 -1510
16638 23282 -468
34558 13500 4096
30319 4500 -2929
16655 18076 32218
30130 1642 6316
26628 29921 -108
14242 22260 3184
30338 15823 21868
33469 11911 22911
18294 21701 -3225
36354 2544 -3106
2027 15248 32994
32976 1815 -3604
17594 812 -3361
31676 26136 934
35807 30224 553
20127 8940 5742
17358 29715 -740
11862 9114 4581
12659 29059 16945
12887 35005 -3056
6362 17215 7374
19119 27834 29323
18513 33149 18870
34329 21598 -686
31822 17817 -2672
28169 18358 100
36219 25980 30189
25453 27155 22313
14758 22368 7149
29892 21133 486
19336 24837 -114
11469 23821 23415
32128 24451 -1129
2829 19728 29382
3484 19484 1403
24095 6581 21863
16152 32217 28588
35765 3111 15430
30998 9668 -2738
6898 18197 31606
18153 27924 35802
27005 36159 4408
12392 27141 -961
31542 9744 -1862
2562 23301 -3618
16546 20087 -3402
27251 1245 23765
35422 14784 -1000
2772 10505 -812
33363 35923 16788
4418 32835 4451
13408 22680 1269
23029 264 30363
14694 34105 -3243
18091 28137 -1644
29247 20888 8203
16061 897 -1298
7343 19825 37155
7179 37172 10173
15047 32624 20281
19701 20300 18830
22908 19195 9940
5803 18328 -2151
30827 15352 -2389
36212 456 -2330
31218 12953 -1839
18265 28397 16868
6513 23102 21224
18999 517 -2513
21146 14511 -3544
33502 30968 -985
35113 8140 -1393
6594 19783 12419
5464 21803 35528
7711 13013 26236
25682 4023 -571
22623 8004 19075
28459 29342 30325
8201 36136 27414
2920 20751 35784
10862 22038 36390
24324 23011 -850
16177 4089 -1429
23084 20152 -2796
27277 3620 -3241
15784 30822 19402
23808 9666 13885
17369 28239 -151
14710 11956 -3726
32899 21276 -979
15873 5342 -111
19332 10683 34984
13774 3777 -1521
14390 25613 14896
36908 33697 -736
17813 8578 -577
4932 31957 -948
37448 9367 -2693
30761 16216 5706
26058 16597 -2637
31067 8363 29662
35894 13713 -216
20399 26336 -3143
15235 24853 -140
4370 26191 14616
9801 27152 13186
2482 15440 -2019
10804 26638 -2785
7337 26558 33148
35840 9922 30953
33042 29304 32682
17134 19773 1011
26782 19649 -726
23158 5576 24329
27071 24326 19511
12978 7461 31860
15180 19807 -1993
25097 3653 24831
26374 3886 -593
7945 35305 36963
14727 36616 31700
6030 36084 -766
6184 32958 34885
23313 28151 36510
32338 18099 -1959
29970 17257 -2407
30100 18546 16637
12069 17920 -821
15352 15389 21718
35013 2204 -342
20970 23902 23315
30601 1055 -274
18878 23466 22149
3600 31225 -3631
2318 9902 -2667
31881 34432 -3236
3175 32487 21556
37461 718 17824
23831 27256 35531
29822 36430 -228
24992 9007 -3711
2754 37163 -2904
13 29363 -1776
12808 17063 -986
4690 36777 8050
34125 5043 33360
12031 34810 21963
14281 26482 1648
8266 7711 -891
16651 11483 -438
5006 14837 5854
13248 27612 18159
35670 451 10475
28025 3819 20113
22029 33785 5554
12375 9866 -77
26717 15984 30867
20363 34678 488
35798 21491 16023
72 34437 12568
20589 24668 -1746
27300 24184 -2819
7779 3282 16192
17626 16751 -262
36837 180 -3318
9318 34943 33001
3113 27206 2427
15626 33856 32433
20574 30907 35922
32019 9455 -3039
35288 969 5415
21153 8693 -2470
29335 1193 -947
28212 7597 -591
13693 1303 -3616
18687 18476 14700
29929 14409 18686
17058 30944 -3392
3942 16430 -648
353 13748 5922
10776 12541 -726
15070 2934 -233
32367 23083 -3714
10559 18542 -170
20858 3895 -523
16329 31364 23299
35994 558 -3648
10481 10463 -2771
29891 6324 -427
16731 7562 -2060
33367 18422 -1037
7343 8817 -3688
4703 1608 -243
1597 20416 4984
31565 15788 19752
17718 36468 22557
21014 2366 16297
20053 34389 8798
22963 29185 37346
17008 30181 -1167
9933 34516 -1429
31486 4471 22120
6356 17904 -415
12579 36750 6874
16993 33697 22067
15447 34666 -2798
7520 10431 -40
37215 11146 -1605
24510 34305 21199
23659 17655 -2281
20652 12899 2233
26920 12238 23158
20994 21118 -1292
18641 744 -363
1876 26512 37470
22601 23806 -1655
10357 15451 -3142
15680 37392 9208
36300 33556 11980
13431 32443 21793
33428 6769 34342
3716 23905 27102
5792 8743 16798
25653 12046 3817
4270 17219 -3524
36198 23785 -1252
8647 27466 35058
12759 21642 7531
26963 14091 -2592
15963 26442 29855
3834 23242 -292
23578 23493 10148
18923 5186 4772
19647 15817 -670
24738 36536 10645
9644 23761 -970
6799 4540 -3681
14587 15340 29193
35534 31619 -2477
28449 24453 8798
603 31594 31477
13261 30246 17004
8341 26574 19746
7956 33622 8654
3759 24102 -2817
20527 30125 6204
24531 14016 -2558
16360 14644 9699
13052 2781 10421
3135 21894 35054
5934 28605 -1868
17757 23333 -1710
26499 37267 26799
22057 16973 -2688
19700 15762 -1737
22077 20984 -184
37322 37462 -821
35615 14749 -247
23993 11764 31217
27085 34320 35609
9835 25085 -1054
37382 9999 -2441
36575 536 32505
6261 8020 27451
33105 18109 -2216
13657 28275 -2020
35790 20175 -1209
1112 10383 34198
32593 21119 13492
20528 31995 -1761
1949 22059 26281
33176 29519 6932
15317 10023 34082
3007 34593 4423
15561 36402 -247
23739 17062 -1580
32021 32754 -1042
28497 17471 617
13323 36112 -1962
7090 20344 -2720
22017 15322 2841
23669 5079 32346
23766 13709 8371
15976 21967 35093
7490 19383 36712
23419 27470 13197
26333 17317 -3345
25158 37470 -202
4841 2989 -751
8318 30391 -3747
20700 762 726
18604 36140 -2753
14032 1230 -202
26533 13445 35373
27515 30080 -2649
35721 14452 29029
1852 1723 18109
24847 18187 32214
26481 19064 -2824
8883 34330 -2826
29543 1601 23795
7438 26602 6292
31779 1385 24660
32720 35980 -326
26969 24222 -3675
23571 30237 12603
6360 18469 29971
20804 33961 15147
2256 33741 -694
1407 14863 -1568
2742 5275 -2030
34381 32687 -3500
4976 5964 1009
9517 29170 31518
9726 18045 2638
32697 36915 -3374
21574 18524 37071
3201 16580 7718
21004 21173 32353
7241 36267 35810
11156 35429 28270
25482 19536 33992
20396 10022 -3009
27088 7375 35801
17812 160 9039
32071 14060 72
23418 24946 14059
5806 35608 32619
23814 12509 -1345
7574 23650 -2544
12139 10147 -3390
27699 20375 -1257
30534 4045 -1122
35361 14571 28889
29459 32620 5140
26508 2289 -2170
34305 35896 8287
27127 11704 17813
37100 33621 26857
25291 13416 -1768
7507 7941 -3119
153 22683 5824
19197 16906 -2743
30002 10398 -2374
20897 30594 -1959
8782 36404 -1037
26874 35388 -3638
31906 27921 -197
8173 8017 -3517
7551 408 36935
19700 19549 13489
4994 31350 6934
24391 17484 25060
30090 17028 30462
31592 32549 25896
12982 14807 1416
29134 6665 11041
28613 25425 -1656
30057 32685 -3414
278 7202 21288
1982 23224 -1252
11317 8192 27859
828 31237 -2429
4764 7660 -1748
14859 8315 15303
29843 27330 6980
8119 9965 32173
15512 2443 -1782
10329 8878 -2822
3936 4595 36171
20677 4731 32895
3800 20039 19367
3633 7313 34241
18067 35710 -1498
36193 4474 -1802
16391 3953 3167
4809 8826 17720
23126 30661 6292
12538 6500 5289
11939 21469 -771
7898 12477 1569
35728 6399 27926
1437 18215 28962
16083 25717 21252
6326 2919 28232
12135 23848 28444
22242 10839 -3341
17379 29616 -816
5398 14331 5502
13774 23555 -421
25575 9345 -2984
13968 26297 184
23690 12820 4508
25582 36541 12272
25271 4250 -2300
3336 19007 30152
19605 4098 35298
213 22744 -2626
35975 13667 -3098
20988 31766 3147
853 2089 14521
3185 21886 -2642
35745 3023 -2204
14103 28961 19760
20374 17700 -804
28067 4017 -1359
20998 4272 -2487
34791 20014 30461
5722 16290 -2394
23348 3527 5621
19498 14555 -3134
27375 21750 -2756
34737 17021 -3573
18568 3136 -2407
26003 2287 -501
654 21627 1725
14044 14748 17050
28563 2076 19066
27710 17211 -582
23506 18237 -844
36195 36855 -266
3859 2674 11623
4046 28066 -3084
6410 5513 -2429
33678 32446 32004
1176 33858 22130
26739 8661 -1875
20561 15564 -146
12202 23819 -2306
2107 15216 -1450
24592 6737 -936
35523 28676 -2220
5897 6520 19505
20706 27967 13370
17857 25529 9149
35513 14236 4667
30201 9809 259
32447 22870 7192
6681 3074 22115
8494 9310 27011
26819 2132 20351
35199 11773 -3149
332 11294 4018
7886 21223 -264
7405 35259 -969
3445 17598 -1519
31676 1470 -2496
36897 10861 -1051
943 13795 1977
20947 30456 -531
31059 17485 20459
536 8622 -3049
12186 24171 27627
19506 3640 -290
18279 9468 -1040
3936 1602 3639
3705 4149 21345
33541 11968 -2574
10106 31874 -1744
37075 17379 14508
33067 13523 -2264
24985 27547 14373
28268 11517 2053
35269 3376 29142
3624 13026 -3330
22484 5985 34094
24113 34391 11930
37259 24225 15808
27436 9272 12145
9869 19858 5615
1099 24119 30300
28045 17820 28300
26997 2531 36403
5091 35737 -2823
13626 786 -2052
15488 4683 16746
21023 13354 -388
13575 18458 30648
2517 26426 -2383
33728 28216 -1946
411 26660 30590
13637 26297 1282
1705 11390 -3126
37210 31836 33826
15155 32064 20246
29877 31717 12718
9672 29504 -2824
37140 7768 -2018
18023 18621 -2792
11427 5608 -3190
1523 34885 36234
37303 13336 12656
5069 32708 -476
19430 147 -1940
26862 16109 -101
29692 4880 25120
24886 19253 15864
27585 27537 8717
30647 638 35982
14510 22046 -1192
31067 36067 -701
17448 34168 33412
30806 24198 7058
21861 24266 -3200
6203 4566 -3474
18525 9800 26412
32515 6629 36403
16022 28538 30921
32264 8315 13218
21371 7687 -2436
18223 27622 1352
5102 4067 16418
19169 23292 -1914
21677 14570 -686
22954 6148 -1777
15949 23032 13066
32275 12741 -560
34317 15161 23153
33318 842 -3234
5343 34277 -1759
32605 6072 4620
17342 15813 -787
20240 23037 25021
7980 31028 -1141
8321 22699 11681
25486 7939 10034
7994 22704 13645
2967 33942 4712
15494 6668 2373
13734 25565 126
37063 17263 24268
33931 11864 -1151
4735 13496 -2949
13545 36889 37044
28634 3701 7565
37004 20082 34679
18455 3603 -2426
19418 16311 37398
27123 1951 37174
19620 2655 20092
17112 31775 -3125
2895 22877 -3621
17462 14133 -1686
21885 13653 13228
9336 14949 -2602
34742 23265 -1364
17116 4144 7748
12061 1256 -31
19592 8935 -3138
16175 28093 -2848
22286 32346 32852
36379 1510 28344
22141 34804 -2431
27020 30119 -2738
21552 28371 -658
36179 6769 37048
25128 3215 34343
22517 14151 31661
20064 7783 13754
22937 19364 -76
691 31481 -901
2494 19673 -3394
7782 4547 4863
13137 11070 -1732
17760 32888 -3321
29868 23515 15460
24721 26121 15513
9648 15988 6898
11681 27368 32094
7073 31920 9364
18726 9526 2165
15435 22064 15500
20584 27061 21134
16241 12199 10132
13482 17558 21282
13047 16364 15966
16012 17391 -2311
4866 20966 24001
34186 18490 -3681
7136 31507 -3442
33258 1097 -1743
4807 31702 11183
30967 30800 -3588
30480 14436 8177
28496 12446 -603
12051 6876 1561
28349 32139 -1503
33147 696 -2850
21624 22856 -3541
18518 15095 33350
29318 7585 3320
18585 35389 -3071
23627 31544 -2292
29460 30344 -2
29286 9587 14549
11216 37388 -3182
20103 23114 -2292
16045 10517 15631
25571 32526 -2474
27059 9229 -332
18413 16456 -303
33191 32852 -3421
19977 8731 4684
26227 2252 4269
8035 8524 335
80 2822 28383
35930 3993 -1242
17029 12895 -604
14703 11314 -3616
5554 11313 -2991
35169 28065 -473
37160 5515 7160
20080 10634 34790
34159 30610 10914
16118 1824 -286
16795 22115 -2740
24710 8873 2886
212 23641 -140
16757 5155 -765
3637 12264 -3747
14898 22409 20195
1061 27478 -3551
5901 12963 -3500
7724 28310 -774
27670 11980 -233
31973 28594 -439
27577 23551 -2389
23806 2132 29209
35839 2943 20926
34811 34686 5526
20420 10857 9180
13109 32715 23773
12278 23985 30150
19892 8988 -3378
24460 12947 6818
30670 11714 -2816
1908 14012 -2679
8177 17975 -304
29691 30255 5102
4393 31029 -1074
31047 13115 -2210
4786 30890 21989
1949 4923 31165
32115 20958 -1104
21355 1835 5215
5988 27284 -1860
15955 34109 -1493
26581 3389 -1200
22004 28708 -1647
15675 31814 24729
29214 10328 27841
35096 2704 -47
24713 11252 -2250
35604 12385 -1430
26609 9459 13963
16061 19800 -3153
24017 27193 9583
33836 17998 -3282
12991 13233 2995
8063 37045 -1941
11690 4339 20343
34146 5618 28394
26408 34302 21696
21247 31022 -2808
883 4801 -2745
16863 5679 -2111
32470 1353 -2074
36980 30335 -1419
26783 20809 -1764
6559 28674 13137
5592 13475 18252
33176 23974 -2332
25974 16232 -2414
20478 23872 -2750
10774 22306 -3591
9731 13113 1546
33026 31731 -1414
14935 13179 -3013
22521 12007 -2838
33172 20870 -1392
1139 23254 -1806
28491 34756 -3334
22754 29956 31351
10606 20836 -1519
23876 8383 30481
32532 10408 14392
26722 5321 27636
30104 10610 -699
32085 3681 22633
27706 30549 24930
31328 27405 -3132
36559 36722 -2411
13045 3528 -2060
4717 23022 22646
21590 33248 -205
23355 1159 6647
29526 15299 29799
12167 21743 -151
4953 1293 -296
12837 27585 -9
15991 23437 7130
19200 31149 11756
12678 17623 29879
7814 29024 29596
2672 27246 10983
19199 16793 -3401
16798 11431 34796
27108 27432 -953
16824 13246 -3725
25666 18544 34543
13994 757 -2662
9103 15578 -3170
32241 24508 -1723
23767 25058 -379
25345 2083 15078
3967 6661 -1539
20207 33100 16904
16241 1141 2110
19059 20642 -3498
23570 14338 27414
8028 28091 24487
3301 9308 27180
21699 27628 762
19869 8119 37042
17651 1958 -2673
19947 18075 -94
8042 35832 10067
18295 13553 -2270
3925 7777 -1527
8751 4866 27884
19760 1813 21450
23438 34832 5854
18943 18453 5860
11937 18439 -1714
1211 22704 13421
32693 35040 -2902
35396 36871 -154
30090 32281 12624
35127 13000 -3177
32379 8110 -966
23013 24975 5001
19465 16216 2850
5977 37135 -1518
17755 11850 27859
13563 31057 14293
35555 87 32252
20762 609 12555
30989 35643 -82
302 37010 4672
20380 8717 26659
16970 12807 -2315
4432 23986 28303
17380 17697 33685
2632 20111 10058
1158 6981 -689
30081 29412 -2822
3694 15083 2581
1171 27218 4870
25137 22163 15687
5165 20184 35472
25539 15294 21305
24968 21040 24701
27643 8890 11485
36597 33706 374
26505 30975 -363
3176 80 -1441
22587 11066 -2837
26155 13372 11375
6429 26118 -622
7935 26066 -1701
4751 1645 23769
21163 31420 22929
15321 28214 3286
26080 27166 29532
8392 7605 -115
34270 15945 3048
36186 6766 -1219
1134 8839 -2550
3412 28623 -2911
5413 4467 6665
459 10973 24587
8996 24680 13954
10292 26218 8507
29362 1073 26026
24048 11744 146
12900 11478 -2739
20553 14970 24052
12547 29115 32234
29642 14622 12008
26642 37401 23734
34603 10151 -1219
27342 10026 -2552
4919 4673 15087
15338 16531 -2133
6154 4579 -1344
25467 9901 -744
36607 13863 30535
944 8225 -1199
3140 14852 -1276
23102 8278 -841
35819 30122 -675
5318 3623 -2718
15891 31307 25031
35925 12823 -329
26658 973 2865
27481 29906 23734
29622 16123 24729
3402 6268 -1451
32930 15272 -3061
29896 25875 19359
8164 18421 -817
37305 30886 -3182
27997 11753 33146
25942 35470 -2483
5441 25723 34228
13596 36541 5391
27385 7370 -2359
12894 21721 -3383
26982 3182 -660
24863 3637 12903
32007 5465 -2957
18863 683 -2889
25002 26114 21901
16813 9423 26189
5769 1947 -1045
10534 1046 8117
11087 12179 -2522
24131 5560 -3669
3915 4604 -2493
17066 22742 -1181
23273 15137 11407
6159 11867 -1906
3028 9863 8370
21860 4707 -2779
26058 23481 7930
20602 18862 14489
1087 19751 16887
10868 19099 36024
36676 3831 -1791
35398 13664 24986
14622 10144 -1744
14242 31966 -893
21209 17386 -401
17856 25376 -808
2707 1536 -1611
14143 28430 -2201
10164 4430 -201
25144 19979 -1134
2510 15952 4288
31631 2241 1827
23364 33972 14727
10777 23924 -2769
13617 16138 -398
37117 11491 -11
33985 19518 -2676
21864 26624 -1598
27925 9342 -1421
32880 24893 2699
10003 36162 26189
7952 26952 -1525
8865 34998 10541
5425 19862 319
13011 4999 -438
10100 21251 13395
29118 4868 -2950
11805 31273 -585
26284 21502 11282
25079 18998 32387
10668 34349 29909
27023 9823 11373
18208 8091 -2772
22771 14859 138
4065 34639 -3681
31530 34706 -2135
2675 18777 26256
26128 31991 14342
18845 4716 2750
6142 12004 19791
18012 14294 27702
33071 27644 -1539
11100 21384 5847
10686 9935 10852
16690 36895 20758
15861 14082 -1961
23192 29419 16079
15129 4676 37483
6340 21707 21172
2083 16108 21246
24715 27982 11012
32633 36433 15331
7454 10508 -3127
16762 32070 -1736
31594 22730 -1494
16868 33247 24830
13274 18030 12647
33787 4594 -2527
16480 18456 -2776
17152 17640 -3330
993 35775 -843
33552 20953 -3260
28583 15791 27890
10031 8510 2651
19543 1704 -2077
14261 27015 2736
21027 4670 20952
35004 9154 -417
32382 15308 14331
12473 24788 -969
2979 13267 -3185
33684 27840 -2610
10479 7739 17909
5940 15128 -2820
24609 12895 8067
1669 34922 32293
1441 4961 -1902
9013 8948 -2938
36222 29114 -2690
32264 24887 570
29289 1815 12406
16069 11376 15450
1357 21212 -212
4777 13746 -1402
22569 2871 -746
16886 30305 -2835
30836 24508 12027
29562 8971 25701
29768 30110 -185
5258 29876 -2845
25214 15952 -1550
9995 19059 9968
26393 5343 24436
32697 7705 18078
16808 2778 21064
18913 18073 -2535
34073 6067 13119
32508 1612 8793
18275 2210 -3062
20787 16786 28050
34131 34895 -745
32940 11805 -1980
36261 27013 28311
19673 23033 -2969
15927 12310 -881
2239 8105 32017
2674 22403 7933
23456 13718 -2470
30746 1239 -1289
19658 19717 -1607
37335 36568 24350
1957 33847 8826
238 33795 8725
30733 29143 -3134
24559 8561 -3447
33652 2849 -449
34066 34472 28088
11818 15421 -2424
10745 21118 28653
15805 32758 35571
26421 13912 -2161
1079 8353 -2041
5532 18626 29222
23527 9282 -3063
23366 7825 -3483
10133 2186 23080
31166 409 16586
743 8610 -3683
14594 18729 22213
22432 22226 -1283
27200 11330 35630
9263 17115 16477
3077 26688 -3364
28629 34117 -336
15185 19777 26047
10654 29015 4892
22801 37288 -2112
19878 29768 -1661
2013 6910 17140
11099 22356 -3401
10026 581 8574
424 12962 -1236
24297 25140 2427
16492 24700 -2941
8388 18875 -383
28723 3800 33207
34479 10024 27969
18177 25868 -1297
33401 30843 25468
34324 24621 -3188
1104 37432 7712
20424 18692 -244
7353 34674 2721
11179 7993 6707
31870 27220 -2421
225 4818 21428
29879 34500 -290
12524 7422 -2373
17068 25597 16090
36331 10823 648
17011 1260 34079
32155 28218 6799
31260 37371 -3051
16820 32714 37365
35531 2797 29293
32431 4975 21033
11351 29796 -1636
542 24698 31291
4886 985 3239
21730 20779 33891
31084 21372 9600
19977 67 -3493
5810 8520 -376
32453 21362 -2537
512 20840 21933
17574 26095 8701
3435 17002 -3628
23944 18388 -2359
2729 26363 5131
8660 22349 -2634
9220 26314 24688
12492 37322 -2205
25925 7119 -2121
5535 23003 -1285
21151 16176 17632
1825 14886 -2454
1344 9810 29082
11750 9642 14642
30417 16731 -574
22236 29981 -2235
33474 5412 18015
18448 5168 -1181
32937 12385 -372
30405 4186 11047
15008 27603 30452
28476 14502 4283
17535 23683 13921
9450 2860 23015
20034 7655 27237
2903 3790 7871
10177 19470 2888
7057 1178 -1770
24475 21358 -1379
4308 18059 18697
11410 12973 -3039
23171 12762 16747
12396 9525 -1812
14542 14008 8303
11990 4582 -3249
11472 6330 1424
1899 2796 -665
15748 18259 21574
12551 14715 -1116
29670 19441 -2964
9503 21317 22847
1374 7490 -3215
24203 18866 -615
29902 9189 -1216
11976 25841 -1864
32122 35262 -2100
19416 34358 19141
31252 16404 -1811
20989 18899 -3630
21575 7860 10587
17638 3873 28123
19402 6592 -3241
31928 17687 -1319
17577 9582 5118
32637 11407 -1898
22522 37356 -860
21587 29023 9029
24399 31363 -1485
26220 26253 12941
34722 30886 -238
17533 14812 -2890
981 14140 -688
6497 9568 -2059
4357 23008 -293
3821 33988 9292
4725 12230 -2210
26450 33797 -3041
28750 1758 8214
26097 13232 4622
36937 24650 27890
21538 9411 27687
20982 2189 29084
10989 35880 8069
26794 34439 -3641
16529 23491 -1307
6111 24153 10889
37152 10638 1315
25041 13139 -598
9488 17574 -1760
22006 3394 27897
31501 22136 27575
168 17821 -2212
30620 26565 -1787
27385 8988 -1258
28149 6563 25819
4792 37077 18522
5984 8298 -2570
8651 27946 -616
33697 19294 -64
27375 22510 15338
25503 29424 -696
9520 37478 -237
23079 26305 -3150
9162 31518 24866
8254 36526 15210
1083 15750 23370
12016 18764 29331
17570 855 -140
37198 21978 29984
16014 21958 -1331
25910 2037 -2160
26271 22869 -1484
637 21567 -1772
24725 7522 31809
30785 6936 28888
36824 17575 33313
23010 25563 -3690
7925 14927 31323
1701 15528 -1754
23157 24057 6817
35760 13339 36248
20928 30432 -2845
27820 32522 -3413
12764 16508 22149
31228 35377 -2243
11612 14943 27708
21536 9044 -1805
5301 34052 -2900
26491 17866 29089
8303 17802 -687
20796 37130 14296
33563 12492 -895
14848 26717 -3181
8618 16681 -957
12167 16099 24931
31414 31374 -1045
24041 24993 -686
479 1107 4686
18222 26929 -3006
11848 29174 17920
7351 32124 33528
24557 31628 1664
3187 32933 25673
17859 31310 17804
20995 5235 12424
845 29276 -3569
32843 28836 -469
32668 26788 5823
36716 18525 -1044
772 32220 20300
26143 26425 5550
18153 14426 -706
3682 15992 10608
37452 10547 -801
21175 35809 10912
35253 33404 -3684
33613 20609 16119
19283 34027 19935
15416 37036 29980
23064 33494 7553
14077 31755 22392
30797 22866 -1690
36605 20613 -3039
19065 6689 28789
10116 14910 17043
29731 24240 16356
35021 23994 26568
14633 10856 22108
895 34248 755
23538 14775 14513
22198 3159 -2020
20281 34401 -159
21088 26777 -3022
22364 1465 -401
10934 30817 -940
28929 32042 30164
33560 30940 26097
4334 14469 8468
25599 21986 34736
6882 23228 31976
12682 29198 -2727
23306 3348 -2151
33243 22099 -2738
13213 26376 -1524
21810 28740 -3341
7356 35227 -373
5979 793 -662
32790 21408 12296
15968 22978 -1135
21440 12585 33817
30794 1687 -1791
7712 23631 -221
25289 12856 -493
9322 12844 31444
32163 18684 -1667
19283 8988 -2863
28784 7455 -1669
30986 24422 -2562
3561 15785 17451
10813 10624 18690
21813 26682 -3105
10122 16944 -1059
18382 20602 30004
3335 6505 31174
17989 10202 -3685
20690 35423 5668
4451 12616 9982
10502 22668 34042
34059 16544 10586
17954 36137 -3296
14238 19023 31824
1791 9379 -621
11050 26109 -1771
21692 20396 -2152
22810 7719 35028
22944 11246 -391
27678 21429 34973
22954 2481 -1825
27398 29459 15498
33309 19221 21238
11770 6698 -1870
18842 3347 -1792
13974 10977 -2588
31391 19693 -1657
7101 700 14436
18933 14026 -3746
5650 34077 15188
5639 12059 28040
29963 10410 -395
25194 26225 -1309
9479 2660 -663
16140 31196 -434
3334 30716 -659
21224 2574 10555
12216 2849 -744
32481 19293 16195
2069 24435 -1774
31080 29304 15401
34575 31026 5218
34950 11787 -1903
29366 4392 33535
8876 30067 -938
11318 20120 -1976
11833 1389 34632
18407 24702 12916
3782 15389 1001
6417 29235 -1671
5336 11459 3139
19200 1334 11605
6379 3333 -1866
28840 29006 -2869
30272 4926 -975
14539 4626 -343
8323 14101 -2987
21084 22084 37492
13174 18797 23238
21740 36719 28832
14054 4372 8818
16196 12057 -2760
20376 16276 -2871
1451 33040 27684
5665 23342 34930
18464 31973 -650
10978 37379 -2013
6860 13596 27918
8862 22607 -1591
23243 9192 -2908
30040 10582 -1758
11041 15867 37420
24807 36601 -3747
32170 33972 19530
36938 36112 -1617
17314 10427 19237
28388 10644 -2414
33412 32489 24691
24713 19964 -496
4410 15922 -2040
16816 29696 -2363
16102 10191 31446
32357 12562 10996
498 23512 -428
13884 21784 -878
37492 27502 18835
17088 5672 -3518
34765 8013 30404
27570 21135 24927
31126 3462 689
28149 10393 -1788
11636 33996 -2449
2616 35262 35845
27230 14457 101
12416 36377 -3250
25295 11002 31841
4381 28703 -2112
31161 9321 34609
30027 15215 -2394
26505 35484 -3326
12120 14178 -3020
28687 13422 27927
27648 6184 -57
3691 34792 -3122
457 24539 16874
26536 14505 -3461
28942 5434 9937
25094 23379 -3056
32164 642 -1674
26632 30234 1826
27273 15496 95
28556 3072 -2856
3827 20744 8311
13161 17948 16555
14479 23936 13095
13431 33940 -1980
35580 4172 -2614
19225 616 -3015
18240 6982 -3207
4960 33827 32048
7427 23594 -2638
16205 45 12334
13331 24397 14531
23264 1179 20946
21917 18860 6108
28855 18852 11152
22503 16435 -1900
21888 12599 -700
7480 11089 -3255
23183 3956 4729
34967 27683 -2683
47 22598 -3703
31539 21103 -2167
11500 18902 4600
27008 6864 31154
1135 3818 -1358
16839 20584 -3194
25857 31280 21067
10800 4330 -1506
19397 5423 20608
13481 36994 -286
1652 35084 7521
22703 12140 537
2283 8236 -1896
14683 16775 32628
37092 3352 -156
11261 4977 12036
28815 23993 24055
2530 34835 19890
23428 545 2061
20138 8405 8862
8734 34042 -2504
20336 1763 -1161
10352 14893 -1584
30069 16717 -1943
32582 9677 21432
33207 26596 27631
15257 10257 10530
8414 21341 18097
4508 31073 19658
26455 21086 -1227
1261 24691 -704
9657 4401 -1040
6881 34606 -2591
8397 12136 -2819
34007 12835 20498
34467 13129 26249
24173 34543 26656
9383 4542 -1659
181 7240 20741
1553 14009 30847
21876 6364 18141
27869 20341 1199
2950 154 -1811
9344 20549 -3136
32608 24295 16298
34383 7128 5237
36411 37222 7174
11383 26156 -1224
10960 7115 -3444
23850 9882 -80
4239 8223 -1015
6588 10299 32233
12228 32439 -2029
4877 29796 -1706
21542 15680 10223
22729 7822 16125
8860 33118 6689
11373 21308 -1046
18952 29052 6593
33243 21476 -321
13731 7838 -2177
2804 30028 -2564
8682 31384 -2961
24844 4473 1364
2161 3380 -3418
1008 34713 17142
8908 12189 19811
17027 28865 17228
1794 29794 22475
29866 23447 31297
33127 8081 24897
18015 14102 -2584
28153 14169 -1781
2757 30359 -2194
30630 19275 -2785
21921 2998 -1454
19645 2236 15129
10500 3906 -1585
20787 32518 -4
30657 12044 -3690
18709 25963 -2614
32409 10399 25840
30973 14438 -3066
15041 24534 -123
23438 13258 -185
26001 7272 26015
7377 9849 9945
14818 32184 13924
1658 23545 32609
26801 33289 37068
9534 19026 -3688
26353 33994 21356
21787 11228 19905
17847 2701 22367
20855 26890 35708
11217 5448 -2079
32697 3252 -2284
24690 35261 28666
4851 5295 -849
1521 12453 -2724
32505 3129 -1661
18316 31465 -424
34248 32245 4934
24332 14011 -1229
7269 25466 6016
15107 21029 -399
15222 29468 -292
21127 33119 17025
14401 16445 -1992
13357 7312 34408
33787 14904 20858
10806 32650 -1608
17794 22846 -3063
26585 2936 567
8684 25397 23880
24933 11711 -3003
22593 21299 11569
2427 31246 -2795
2466 21424 18273
4345 19117 -2974
12324 897 27704
31119 16877 -2347
17197 16107 31146
34641 34387 33159
11881 25527 -3137
611 22921 -1379
3927 11973 -1372
17750 34527 -2935
27184 10968 -2424
21928 16763 10353
7345 12318 25428
8699 20885 -1828
23562 37402 -3733
7098 129 -3720
35482 29074 -1403
20819 36117 15980
21786 8769 -763
36125 31 10685
13567 27062 -1716
400 7888 -2260
26074 3797 -3310
3171 1893 -3442
10055 26076 -1660
20976 19249 33100
6148 13314 -3104
26071 10650 -846
20503 29606 -542
19195 32131 15775
19872 11941 27499
9296 30441 -890
36211 5343 22153
32138 17440 15432
2048 30396 -2789
36208 31279 -2499
7762 10075 -1245
29403 154 -2963
7652 35221 -523
25878 37459 -1795
4326 9358 11026
34470 23091 13250
8433 21756 -294
17254 7812 19155
14069 17729 1456
15999 13084 -414
30681 10809 -3706
6912 21328 6261
31916 12609 -1251
12387 24513 -2267
6725 27222 -2253
25640 9881 -2017
3945 19741 6500
32419 10975 8232
19059 9646 -2287
17036 76 -2652
21324 10465 -2395
34104 27680 8104
29374 25005 10401
11933 23540 -518
10269 344 31876
19824 6343 27527
19412 7287 30559
12761 25025 -3626
24627 1374 -1121
13184 21124 21849
9376 36817 -3636
2223 22582 -1632
26267 33919 8675
27044 32030 -543
29277 29994 -3268
12515 16841 13633
32347 23723 31425
5546 28571 -585
26632 27207 -1900
14080 31473 -1123
5435 7018 21902
32183 26874 11286
34275 16787 30951
5446 21361 -3458
2730 4700 11636
36844 36507 -2379
32733 11456 16484
22171 11432 -626
2238 17730 -824
20636 13567 -984
15289 34997 5280
26366 8695 -2040
25001 22948 3518
3390 19014 -240
19271 6564 36282
34143 20597 25335
33705 8402 22370
10936 22846 -3618
6963 29425 21324
8282 37188 -2711
20353 16939 2566
30396 14378 -868
1454 8754 -450
7782 35933 -1275
8106 23939 -1650
6819 23707 -657
26846 15446 -2317
13356 25281 17166
435 8883 -3345
17332 11427 -2810
32240 14677 20752
23065 32129 -1494
15559 2805 29838
12064 26395 -2747
11455 16669 5134
28376 25243 28270
31937 281 -1178
36416 30061 -2273
10777 35821 33604
14115 4248 95
32201 16677 -1087
36135 2558 -2645
31259 21142 12655
424 15702 30100
21354 6243 -1213
21349 22457 17095
25475 27438 -2273
34354 27792 -39
20969 23736 -1440
5278 35083 -1294
31257 27848 34424
28447 4962 17162
6646 32369 -2006
1305 8519 12819
31548 16211 -956
5158 24109 19338
8209 27764 -1870
3110 10733 -98
31393 34871 5406
37342 35092 -2185
9915 18838 -1731
7232 26592 -1261
29285 24704 -1900
32677 13995 -431
13810 13671 -2181
10958 1430 -1285
1621 31176 12756
34613 7343 23651
11901 12643 7023
3761 11608 31710
999 32809 9988
18527 32763 33936
6468 34517 -147
22854 24404 15806
19390 35797 19724
19871 2844 29986
35861 9782 15129
29652 31097 -765
26870 14165 14262
7051 15702 -715
7918 29911 -992
34600 37426 20113
34650 22321 35847
33389 34389 26148
32517 28973 7416
22749 11281 -1971
18766 36035 35369
5489 4951 -1793
12804 26877 -3707
11197 31782 -1620
36579 34360 -84
11799 31003 10222
11798 9590 33428
34068 15507 -1170
26856 10277 31320
21721 455 -3715
11134 13020 20102
21091 8482 -1016
31378 11362 -3096
27721 24825 22838
10425 27742 -3552
1363 9246 -2593
6758 15224 13723
11489 3542 -296
19011 17160 -3338
20520 17220 -3267
29960 9565 -1629
2201 15301 32423
26900 33884 -265
20387 1026 -2338
20588 35522 -702
34272 34097 26527
21420 21780 -1334
24174 4463 6660
21141 11141 33632
10707 10801 -1287
27108 22735 -1393
25124 16892 27679
29129 10666 -3036
36206 8422 -2589
13742 4510 -834
32836 5815 -2201
26512 8506 -2024
8053 30645 27762
33334 30715 23732
35709 15263 1022
4185 9939 -2807
8825 3515 -159
37374 7335 11106
20765 20055 11421
20799 12429 -129
26682 37319 19744
5578 32734 8251
21591 21040 -2660
1444 19408 -3735
27315 29882 21210
28755 32921 7643
9082 19455 -1940
15423 18160 -2705
16814 32834 21376
34667 11387 31581
6576 22008 19493
11781 18436 26847
11259 6080 -672
31818 7806 10474
35688 161 10189
22964 12892 -808
10069 1283 27489
19134 21705 -3642
9765 538 -337
22535 9583 -3125
12903 36751 10937
7524 20653 8113
18852 9770 9510
31614 4512 -1839
15950 21321 -3590
9023 15949 4955
4231 2936 14459
31888 10049 37177
30207 16676 21712
5806 35770 27277
14428 14090 -2869
9268 31054 30601
10206 1026 36784
13578 1409 -2431
17998 28366 10137
9214 25969 -2661
3604 16551 27923
15075 28434 8020
491 6379 -2015
32713 13469 16422
32963 12955 -3257
10020 16537 -678
5547 17276 28198
11892 10768 5014
441 2296 -1222
23395 8575 -3237
35159 24113 22713
2324 2980 -2202
12471 37497 -627
28281 18439 -1050
15676 28317 -1005
26586 1160 18564
31470 21323 -3348
26429 32306 -1054
6580 14912 -1664
33498 35430 -1340
7850 997 26047
22007 20037 33373
17738 24562 -2947
30654 35860 -2839
37164 17205 -866
7697 29457 25895
5836 28512 -708
17001 36251 31507
12276 13069 22357
22434 34698 31705
27635 3442 29971
33135 6935 -1537
16005 4214 -1985
6692 31046 -2977
12647 671 1545
32200 10629 -217
31089 17087 -340
5049 20004 12399
12779 14577 -2807
23890 5675 31588
10555 28608 -1124
34721 14646 31604
1304 28474 14508
17808 25123 6932
9944 27682 29724
8911 31930 -1216
14571 17124 -3085
11988 27278 -2742
36903 36438 15585
15924 6230 34693
5630 2377 36536
23097 37102 -360
15821 8489 -3005
4708 28012 -1736
24759 14906 23617
19910 7638 -171
14829 11989 11468
20960 35192 11292
35891 6374 -382
7234 37316 -1071
4569 33860 -2965
20960 12550 -1177
21406 22151 35039
4924 35517 24225
28638 34665 -1281
12070 6391 -1327
20725 8105 19939
2920 10443 14800
23835 10411 -68
21831 28013 34143
16571 12062 9750
26667 15526 730
3476 26143 -497
14676 16678 7280
2882 3991 35470
275 19779 36290
31798 20335 15566
3161 11491 13654
5251 1360 -327
21287 18013 1656
9021 507 20020
5086 24390 36806
948 12018 27611
30964 3797 21046
28000 5896 -1694
33477 26211 -3321
11678 13635 -521
9687 1098 32252
36285 25782 7486
1634 4112 -1457
7136 25809 -1490
15982 19778 -540
370 18553 18618
4916 14859 21379
28756 111 22304
6100 33387 -55
13560 33346 -1561
12899 26448 -3671
16351 20696 8768
29829 14269 -3154
23503 36641 -3734
29850 20355 -3395
29102 2023 -1238
22462 8636 24589
24443 11081 10934
37366 22965 -3294
13176 28339 -57
36606 13919 -1635
34695 37052 -1936
17311 9480 -1411
9665 9366 1502
3141 3668 13576
977 20963 24419
27444 26446 12467
36685 21897 32751
18985 25467 3581
32552 33499 -1209
37357 27442 -835
28141 34226 31079
28388 32026 11123
30680 15853 7589
23060 9673 -1277
26302 4592 -1937
11102 5014 -2565
4431 3209 28569
34132 10825 -337
33869 19739 -329
36819 29283 36150
3236 7385 -2659
22962 7630 -1198
25917 29072 32689
11142 2283 23992
4495 31365 -1229
31267 2597 30904
35339 7991 23317
1000 16803 -2122
237 2444 -2202
34295 31436 -1845
1540 29495 -3359
17254 21817 -2405
20996 19332 35015
25816 25497 8011
1142 30037 29866
15381 11868 2376
20635 2031 -293
13369 20156 17190
29438 21190 11801
15963 1796 22688
8552 8872 -1054
10611 21385 6517
3708 4532 -1392
19722 19601 105
26056 35486 8597
33528 24323 -871
11568 8008 21269
8433 4992 35197
249 21456 3199
29562 13778 -1905
20393 8663 -1375
1070 4919 15930
29245 26803 -68
28330 24125 20742
20589 16989 -3507
32597 330 14441
23918 25538 -569
31381 17031 -3588
23620 28664 -3607
20604 14302 -3386
28849 4677 -73
17061 9474 14446
14106 18458 14266
25810 5545 -2755
34307 29656 25774
3043 22211 -3037
32740 10066 34984
3977 16132 428
5024 33403 29845
16238 22189 17657
5908 9767 -3551
31099 31576 12810
3404 17522 -3146
13453 37185 -563
36807 20190 36197
20458 5832 10942
30213 32602 -3434
29141 3571 14688
21314 28008 -1147
27848 2198 -1273
7903 5939 -2122
34364 12478 -1327
36905 32569 20094
23649 7078 -2692
10292 16075 16903
7440 34686 36342
31504 18378 5067
30257 26819 12844
28922 27370 -502
25000 24475 21963
29143 17830 33439
10855 3964 25976
31165 1477 18850
30672 32151 -1988
35473 10386 4096
9246 10271 -3242
32715 18699 21180
3415 13671 -1316
20429 33394 -1686
35969 23167 9267
16230 13264 -2593
1567 30389 -1452
24346 22060 -177
13226 3425 23568
14672 32680 -974
17322 35616 10045
29786 16695 -2940
10774 11873 33610
11053 5282 -1992
11259 8011 -3515
22278 32925 -495
10840 34348 31589
616 11621 -2139
13499 13995 37427
7873 19922 -1210
11572 3405 -1910
34172 33026 607
25218 23564 -1123
12002 33104 -3016
36754 976 19285
8692 8101 19772
37379 26925 -2319
20437 20759 31666
13061 25969 3411
20274 20538 16599
15274 36268 -408
33324 24360 -2338
25027 17435 12406
7799 25290 -3429
6184 20659 5084
32678 2291 -2393
27480 27322 21810
8584 36602 -3364
912 2162 30372
14429 4334 -1486
28878 34796 -1906
34579 25270 -1471
24003 18627 11179
27609 1694 20005
24968 14330 -3583
30008 227 -2629
26776 7929 -1604
30521 4717 34649
31919 11807 -2282
25720 24745 33765
12254 31933 -2680
22263 25026 -1085
28797 30157 -2966
15053 30119 -2461
22107 5265 -1848
2215 26629 34367
674 19412 11484
7134 22756 -1225
23437 29269 36220
2276 18671 -82
6028 29765 8587
30293 16631 -2158
25178 15431 -786
12787 14969 29749
12375 32768 -1113
22203 25979 30942
27763 26179 20618
12308 30315 -3228
19695 22051 -3590
12599 3042 -1303
2472 17187 15184
33565 25760 -413
14080 14130 14416
15610 35554 -1038
3626 32838 -1738
27545 26846 -3486
11654 7264 18938
28977 6313 -975
23665 31001 6361
10321 26968 -3429
5562 37425 -1505
23396 33829 -2931
29742 3698 25992
34902 29344 31208
20873 20565 16709
24222 36314 4096
12269 24016 -3092
7314 3930 18632
32780 36362 17550
37330 12336 8727
21245 20632 4866
4150 15482 24753
3920 2085 -1959
4654 4861 -3315
30414 14629 17661
2038 29190 25042
29879 26808 21985
26249 8759 287
781 8784 12484
2094 20741 -1305
15790 22545 29797
9217 31719 33280
17881 15624 -1734
1986 3860 36869
17829 28557 -3224
5976 36866 12326
25538 32644 -2012
11498 9430 -3491
35942 13772 16906
36293 4236 29912
37170 21843 34696
26656 17310 -3101
29826 33490 9036
26855 26153 17749
36999 30114 15058
19135 33961 -3129
13789 18537 13810
7764 37094 10670
13461 31254 -1920
7191 17080 16169
21518 1907 -2076
11399 384 -2545
19324 25663 35580
23440 23149 -3264
9318 8735 4423
11354 13615 -3188
37216 23162 26835
8703 751 -137
7384 17226 34350
1307 16017 20882
2718 31923 -3263
32501 26841 6492
8303 7855 33033
19111 6142 31285
20797 27467 11902
13435 33178 -1886
30270 14833 4205
28959 3503 13979
17647 34818 -3401
2931 5414 35218
12416 25141 15317
3204 30031 10352
28537 22567 15381
12170 16439 -1250
120 8551 20325
29136 24989 36058
19186 23493 15458
21000 25607 -519
35355 29822 17995
31908 20049 -654
8433 35504 -2588
36909 17363 3479
12349 16781 -292
33153 868 -3695
25272 10058 23687
18525 22949 11833
32767 31496 24560
20797 34795 21981
642 10767 12750
10144 4825 20409
8174 15780 36297
24903 19408 -1469
1369 32243 -1444
7666 8405 -1321
33967 25468 -2245
2536 6071 4145
12141 24461 -2166
30646 21692 30375
10433 36471 -1197
1068 29451 -256
3428 908 -3513
26600 22778 -1085
28519 15650 31924
30371 28596 3315
33906 18177 -3747
18288 9504 -3024
17021 37113 -3267
23266 7720 12749
10283 18885 37018
20889 29879 19299
22240 10526 19422
7578 36719 -1280
37336 25610 -3445
13042 31979 5029
15012 9686 -644
6174 326 17764
30572 26826 12065
34568 8729 23650
31966 35509 14286
35781 25498 6214
977 1715 -3237
23953 32702 28144
17068 5347 27340
31398 24303 11533
93 12589 35585
9931 36337 -1551
22550 15393 -3220
28865 16269 35770
33345 6349 -2001
17323 9718 -599
27593 18222 -1192
19880 19981 17933
4672 11637 29199
31217 24635 3175
32924 18264 26403
1357 9034 -1222
24894 24053 1745
30432 33218 1540
28332 16972 858
1077 23750 -2377
33499 21149 28407
12939 35235 14108
1844 32102 -72
36637 13158 29663
13810 33976 -3468
27226 28838 -1684
27407 20600 16488
11180 12510 -1051
31462 26683 -2996
8485 13235 -714
5466 2438 -1695
28484 9893 12968
3410 12660 2898
35858 27202 -223
18156 18162 31820
14674 35375 -3270
5186 26814 35990
30065 1900 16246
20732 29149 -2685
34120 32626 -1475
2570 4216 15152
26572 13739 -930
13205 29006 -3703
34986 11170 -1510
32774 12420 12735
31895 2069 14586
15727 4620 -2178
1730 15445 -1448
33482 9539 -353
26500 12960 8095
7695 9788 28807
35188 15540 -1198
30765 33778 -1316
21451 29748 -2827
18124 893 20410
19465 29717 -2827
25961 26445 -3309
27540 24688 -1280
19581 4271 -800
20516 12697 -1422
5495 19472 17748
16965 18866 -3056
13115 7151 -2477
27751 24933 16595
12022 11788 7340
2339 19938 34699
25438 28724 17861
17796 6281 -1581
34371 13179 7896
32408 28869 33774
13573 15162 -2338
33681 13218 -900
5858 2972 -437
2024 35717 -3418
7305 8876 -3689
22065 3730 -2107
25455 14120 33240
15946 2468 -465
2026 31568 27213
34145 32688 -2638
36700 15042 -2370
9147 27488 -652
8619 7015 26369
33136 13589 35189
28867 13697 -1020
20900 27183 18641
20013 29111 36489
11814 24848 -1337
31170 30243 10903
27640 28275 18913
29691 19836 -860
31793 14929 21360
18572 33082 -418
36886 25403 26918
6129 7776 -2594
34018 20147 -1248
5005 6544 -792
6457 33611 27038
8885 31159 -785
3479 25450 20557
19978 8766 17713
27390 7972 607
20629 25275 2843
31319 14782 -930
26286 21645 35572
14130 37356 5230
16945 25797 -2511
32348 19665 13132
15084 1525 11777
16706 21172 -252
31050 36835 -815
24004 1155 15252
17315 24286 -1022
6451 5812 -2669
17141 23352 15854
22628 19437 -680
13042 24661 -799
36870 17310 26089
31960 12901 -835
19158 36502 -3676
857 8631 -71
7873 21406 -2828
7176 22518 -57
517 22465 -1518
7676 11708 19665
5037 10877 6157
16278 24498 -3283
32388 21432 5146
10113 16316 29615
5738 30725 23687
13971 28435 4224
9537 1784 32393
37349 19854 33764
2323 7118 -15
11078 5745 34531
20666 7633 -399
9554 31468 -99
19570 17369 718
28189 24780 17247
26550 74 -3601
16256 10206 -445
13472 15425 -1294
37125 10534 -3139
7069 5666 -196
279 13946 -1096
12043 9555 -449
22398 36538 -144
33273 34800 -2333
13096 31299 28838
35294 15620 -2269
8864 33961 33561
3503 30265 -554
20177 11159 -2417
31708 30541 -473
27004 27110 15919
35367 22965 31317
1829 3331 -3346
11106 30574 7899
23019 35708 -1585
7758 31046 -842
6652 16278 -2322
27469 23184 21870
19245 27904 10640
3550 8799 14456
12093 35840 6672
23147 1429 -3195
22069 4637 -2898
15635 28296 17386
35883 22392 9831
21893 22202 -998
26242 19241 11445
1493 36312 13706
8237 32743 18507
9964 21304 -1945
31821 4136 5287
17193 8721 -3269
14835 2218 2697
15154 4471 -1156
17003 14835 -2685
21659 9104 6520
30248 16613 29869
27482 34043 -2880
10614 36 28243
27617 36513 -1032
5950 15411 37395
2248 2455 8529
8292 20128 27527
5493 24117 -1862
22585 22446 32687
2855 20266 -457
21479 27842 -3356
8823 12766 30548
35793 21117 9764
35415 8024 -1176
22861 17435 28961
6276 16099 10800
2878 19389 33551
29657 34503 -841
6228 28879 -668
27901 35473 -1838
30263 5479 14455
15414 6285 36599
19451 33848 3445
4889 6479 -3063
435 22644 30246
32599 520 32002
31731 23868 -1329
5269 22669 -2379
12041 13616 -1016
26098 24723 -214
1764 6840 6792
31105 11013 -410
14512 1873 -2020
14871 31082 10512
34626 9463 -45
31246 28112 22216
12706 12680 19736
13742 36494 9865
2442 19158 9763
13865 35323 -1184
23539 18315 -1831
20800 34653 23838
31454 36993 -850
37447 22201 10859
9271 26490 690
192 35236 4354
13145 16756 28377
37190 26879 -3562
926 8790 30978
254 24726 -3400
708 14012 17342
20227 7483 19095
5734 15241 11762
32635 16168 -3078
28117 37037 8120
7879 36283 3203
10325 14862 28050
29155 36386 2280
8930 24666 -1289
3698 13726 -462
36979 10446 28354
36502 30502 -642
2209 16158 16937
18232 21921 26645
13299 1640 -2471
7610 3180 -1172
25544 36054 28795
17333 8776 33173
3719 10116 37077
8146 34430 4641
12596 22171 -1412
25555 24249 15619
33494 13591 18783
10656 21486 -520
23546 10689 16811
3623 33987 -534
33443 29942 20551
9176 21448 -689
25176 15576 20158
16777 28402 23360
8279 21927 -2688
20572 9276 10558
17617 7806 -2417
27947 19840 -2500
1648 21506 28768
10147 9847 19595
22327 29372 -2829
32007 7570 -392
15042 23234 -2000
3702 36588 -1715
9591 16989 21241
21630 18717 -766
19633 24553 3870
12650 24626 29330
12110 29996 -22
4724 20282 -3098
25932 8000 -1261
22124 32363 7639
12922 29278 -484
17183 34257 -2327
36474 16511 -3382
1494 31427 21112
8809 13292 -40
22489 7734 -2027
15939 6682 12119
13966 33018 -216
223 9566 33932
33212 24172 -3116
8022 12974 -1445
17647 4505 7073
37142 33651 5418
23743 26576 2688
28142 5805 -2097
35317 20437 -2927
16179 18160 -1518
27446 27289 -1614
36498 25560 -3328
11486 20550 -2841
21526 5162 7812
21832 32367 -3398
18619 23756 -1353
30858 3311 -812
11762 17949 36819
21784 17979 6401
8323 34545 35674
14415 24870 -2591
8897 21100 28332
26965 25027 33776
4191 15228 15935
19830 1483 22852
23474 10888 15476
25985 13835 6083
1128 4119 -181
15332 15702 10976
33792 4583 13324
9270 13375 24517
36072 16871 -781
21989 16340 20407
8075 29681 -2059
24008 11734 -3741
1412 33883 -495
9239 8754 35060
30014 12649 -2288
26562 36369 32920
32428 28455 -1414
13527 31610 16328
29055 4296 23435
33390 19538 -1660
24787 20496 -3226
10116 36012 -2250
24045 14005 10851
34064 34651 17513
35845 15987 -1318
37188 25710 -1087
14802 1348 8371
1358 2944 -3383
10327 32686 35611
17521 17114 17927
18850 27260 -1161
34419 2980 21342
4648 30673 3215
6087 19630 32486
20576 29246 -2659
26631 14648 -1025
3957 7338 8694
23413 18324 -3573
7813 7047 -2728
9338 37086 -988
31965 3101 33394
30491 24205 20414
23711 16642 12841
4460 18178 33180
4306 22450 -2140
4461 21635 -2129
16885 15879 -2471
18232 9655 -948
5050 13031 23016
7756 19225 -1040
30350 31399 4691
27007 31025 -3265
9010 13480 -3357
1935 4976 2055
8835 7070 -3635
3603 15499 27587
16501 4067 -2831
29760 8084 -1493
35997 448 7967
10320 25303 31094
33798 26559 -2364
29231 31179 9372
19593 8056 25321
17982 14048 1098
37469 35883 28508
11104 12125 5524
33044 14391 1135
25594 7063 -853
32181 5036 11609
33599 24072 -2532
7746 17405 -1390
20363 26078 29899
7290 12365 -1979
24088 34167 466
7617 9476 15296
16201 2523 -947
20492 24691 31804
22908 28156 22329
7661 22560 -1529
19269 21097 -2891
27593 32049 35383
22950 16985 -379
17509 22254 2853
31110 34806 5005
3423 17518 -1265
30430 3100 -652
18748 18386 -1751
23010 9224 33468
5707 35687 -3526
10703 31943 5332
32370 314 -2644
37347 18927 -2472
36362 29013 -1075
22864 864 -2050
19866 9105 21696
25777 29329 -1891
22338 17778 8067
10850 20496 32058
36472 13683 -3017
6272 32844 -724
26528 30756 -396
4389 10963 15922
21160 10285 -2354
21578 9199 -3409
34707 12963 31738
10278 11448 29353
5689 3899 -3411
34904 9515 34754
4194 14834 -509
32520 15900 7318
24318 31108 -536
9410 8368 -2812
18539 4702 -3244
11814 935 31714
15217 9473 10735
32529 5124 16549
6383 18210 -1777
28416 24565 15268
22423 11444 -86
15866 29921 16290
13961 1208 21762
27681 33229 -1311
30923 35987 -2546
16499 12223 -2503
37182 19942 -1648
31291 22855 -607
31084 6924 -11
21469 32387 -2458
15302 32688 5885
25929 462 24752
35600 33810 -3092
7640 17130 -1027
9161 33152 29809
37379 10326 25948
12910 34365 21656
37319 4794 24177
2049 1290 36746
6688 34590 4715
20948 13541 -1253
6150 20691 28900
4173 8828 -149
29192 34138 32126
168 4821 11501
15558 23136 -2950
10879 35074 37191
20673 31283 17081
18740 33651 10524
14802 32206 -1334
21275 6620 -1524
14311 21131 31934
18158 25424 -3236
5703 35217 -679
8142 31729 661
30285 24465 -1975
5336 383 28499
28181 12472 -183
9013 23115 13832
14296 17490 -1353
18988 36028 13270
36448 1816 -664
3841 7601 19580
32244 1117 -95
26307 23295 -3344
34037 35159 12099
7303 2361 27477
24280 6027 -3350
2411 2167 1113
31943 27089 29298
35639 34844 6869
8768 8922 10693
30316 6418 -1958
14719 1057 -3570
10541 23837 18274
14554 7300 5485
6098 21409 18595
26044 1579 -1282
16509 23589 -759
6813 5781 -1915
35623 2756 -1912
9073 4572 -3552
15395 5969 -2076
19950 27439 30261
3110 4610 -1981
7289 9481 35803
31499 25202 21362
31174 18560 14215
30640 34240 -2241
23986 5637 -1187
17793 8944 16434
20086 2331 -675
25609 12000 8859
32427 7540 -1766
19390 27985 26864
7921 2824 20203
27994 25605 -438
10164 7053 22235
19612 19422 7801
7970 13542 -186
33072 6011 35998
36550 25412 17703
27638 19174 12068
22455 6732 -3139
29272 9596 -325
27816 31976 34427
22914 31937 -1070
19290 7708 20850
6926 892 -3084
30463 26879 -2030
13785 11906 4557
23783 26230 -3078
2944 13066 -719
1222 7285 -182
25044 25515 -3456
15858 23584 -2227
19738 967 -2412
21164 19115 14470
5865 23274 -3165
18898 9575 4217
21803 9718 -1459
17209 33866 25825
12051 19835 -2133
28869 13530 -1237
34832 1422 6354
17426 35868 -1585
11213 21677 -2471
12110 23005 34818
36980 4469 -1011
35877 15392 -3047
29541 29752 -1106
16758 14668 -2413
23050 29260 9007
24006 24132 27316
11002 27092 26221
24987 23158 28826
32134 12711 -1925
20828 24805 -1337
29757 26685 -2054
26205 7055 18875
36820 19526 -2978
22572 35868 -645
32243 20002 10206
12264 20498 -1042
28363 30986 4832
4919 15100 31069
27116 27518 5511
6881 11879 23506
29150 15155 29599
14471 29178 15692
22264 27816 35484
13796 36208 -3359
28775 17931 14575
36336 1861 15959
21569 28800 8740
34824 23296 -3586
25832 21563 5314
30010 1120 4672
9041 32754 8228
22721 29445 -1020
1958 11720 -543
29388 31819 -1473
12350 28538 -955
19054 21867 35602
36872 4620 14966
25487 13990 -1548
5733 9277 -2082
34587 11156 -38
26708 7549 28034
24160 35173 25393
1219 8874 12513
36157 1399 26542
22932 8270 30394
10141 31225 -1754
12466 16906 -3466
8241 2273 3561
15479 8041 18174
33619 26881 3124
31449 10658 -3102
7288 24607 11873
4432 2712 34242
14723 4057 7388
26747 27775 25854
1892 11092 11761
20123 30179 33299
27062 23511 -889
33218 9931 -624
30524 28895 32469
593 25402 -1928
11438 28516 -3328
2556 185 -677
7365 15815 -3594
3735 32108 35064
36976 20651 -616
6984 597 -310
293 21111 24331
16124 3480 -2085
34208 26374 -652
34999 27619 -1569
15153 28203 -3321
28959 6835 -2745
3259 13366 2283
25959 11013 22713
23349 22447 14348
473 28748 -1073
3231 7972 16634
18924 15603 -1090
11910 34885 18635
6127 36688 -791
32453 23696 18360
16659 30913 -1957
23237 31189 32567
14387 27413 21815
12550 33080 36218
1384 6822 -1201
5536 15554 14133
13080 30917 35573
28475 13074 -3260
30897 5960 16904
7713 12066 -1200
26328 1234 31933
16038 26616 -2262
26879 25505 -1352
29152 14819 -3634
24572 14272 -1404
24104 13275 1736
9167 13252 31318
31770 12192 13548
2131 737 -534
956 15414 27725
1600 20455 -199
17659 21481 -2338
11918 30972 30251
34312 14515 19422
4928 1925 -1581
7622 13718 30856
15896 23521 32625
9298 9681 -2210
3273 31915 -969
18411 30837 7036
25542 5241 -1834
35508 10432 -716
35784 29390 -1242
28990 9899 35687
24201 10880 29699
6141 23565 -449
32228 15014 -2486
23966 31980 25981
5985 36062 -3598
339 22543 2216
18367 27917 -1365
34798 20096 -1943
9788 15457 11931
28064 2063 33118
12571 30863 10179
29201 26555 -195
28311 11100 -29
35756 5172 34828
33872 25628 13695
26105 18073 26430
21585 12190 31765
31623 3895 -2723
8681 26527 32180
249 2994 23898
11070 3726 -125
26815 12298 -1027
34606 1759 -827
17959 18698 -878
32067 21289 21114
4433 24726 -3489
17007 4738 -2981
35684 13109 -3031
6604 12532 249
15695 15503 -2088
9850 7337 -2214
20880 24415 34725
29590 18420 13352
6960 29377 32233
12716 3603 35989
24873 30707 15824
14518 10895 7499
16622 35008 14213
23672 25859 -2911
28245 31625 -1936
32089 6112 1029
15705 32646 -2117
6014 24799 13055
7513 2923 -1016
9878 29066 -271
13380 23012 25697
23298 19147 2365
8961 10080 -2160
26630 33051 24548
33204 10351 7722
33703 25553 -1544
880 8962 -1650
15192 20833 -957
37336 36330 2180
14238 29129 13151
25041 27959 -3260
31558 26155 -2134
31234 17993 -3713
32641 5498 32783
3729 33667 20189
34941 25256 10529
17812 35794 -2186
5261 26431 12173
15886 23769 18553
17433 28496 10552
14104 15312 -3055
19703 18316 36991
14790 27762 2305
25837 3949 -1839
20262 35416 -3406
2156 28766 23926
30963 11660 35061
34362 24380 -3088
8303 7385 -3280
1329 27263 -901
27325 14098 13624
12842 23004 8068
14992 33769 8751
31978 28365 -1297
8370 9701 -3442
23830 6209 37193
27840 36770 -3111
8959 5861 -856
8391 31254 3282
13390 15505 35061
19425 30224 -3302
2305 23472 -1674
25634 17695 -1561
31616 15693 37193
19130 22522 -3417
17127 33332 4993
32336 21186 -3213
30173 7648 -2024
4718 20906 -2302
35208 23281 17985
13337 6485 1072
29088 20337 19202
11441 31051 -3408
36095 415 19046
434 34378 -461
15275 25986 26368
30990 27177 -2298
2047 8063 24663
15088 16730 26449
36437 27985 -1183
31725 2857 6088
11559 29740 -187
25483 28714 -2362
30788 30047 -2616
37311 9066 22023
36128 12638 34222
17086 23185 -3670
26424 2148 15606
16537 12738 850
20967 12786 -2592
21609 1520 6738
21383 25063 33931
21003 37365 -2446
3407 34646 -139
13889 17027 -2555
5837 25167 16899
16210 36165 3937
31577 3220 31175
22878 37279 32364
7366 15684 -4
21180 3869 29895
18256 20239 30822
33979 21224 34219
6366 16392 988
37085 32912 -430
17925 29280 -1147
5360 8829 31653
14358 17020 20482
31116 2113 -8
6868 1797 -2460
32217 3194 26802
35570 15876 10357
23775 25278 -597
2752 25104 24837
18746 11717 16878
1516 10143 2341
23752 34571 -1182
33229 14514 2692
34821 26383 12999
1654 8373 -132
116 4545 -1664
19995 24704 27304
17584 6564 -1823
28232 35404 -1153
32750 25973 -630
29905 9084 22812
5234 7601 4072
10612 10606 -3024
33689 18882 25050
34148 6007 -1907
1606 8479 18765
28490 1357 -1517
15580 25848 -1434
5069 35790 9908
37186 20646 13336
433 25216 17088
26812 30123 7624
36088 29756 -1224
33330 32858 -3659
23486 24374 -3512
16774 18758 -1058
27306 24435 14939
31374 3858 -530
9383 16248 -1748
12071 1763 -2535
4343 15815 -2075
8126 24540 -1116
36907 21271 -1515
22390 17846 2642
27095 9063 -3299
11555 27090 16169
33371 17060 25498
25685 2653 10496
25875 24944 33435
28703 33805 23296
7632 22933 -1444
4876 5417 -1974
27350 24329 -731
23456 24155 -2794
33005 33005 -2420
983 30199 -2219
27735 17711 974
26198 30214 -2368
5305 37328 -1264
26874 13194 28841
13906 4474 -3621
32465 22662 11350
2125 2857 -2316
8977 22153 10597
22834 3071 -672
33919 7580 9659
13142 33234 33209
9995 4848 27406
34543 7038 -1480
10649 31896 32105
34477 15222 -3612
21624 21982 30941
32685 26279 6642
21793 31275 16236
7784 20011 -1178
6173 1841 6205
11492 23038 -2110
16292 28916 2287
28273 4797 29316
22878 1224 -613
22847 33748 7324
327 36192 -1193
13791 30224 9923
21463 35977 -1698
31110 23597 5059
3945 30034 19953
17903 6948 20803
21726 31922 -1013
20754 2595 1876
18333 2865 11329
5955 6420 -1587
10884 31242 15625
30991 9375 24047
9753 548 6145
16293 16252 -594
29724 8666 -552
17596 509 10969
30295 7957 -3158
9181 37352 35622
26994 26809 35970
37218 37251 31099
3023 34670 13033
3251 34046 25707
23790 28666 -2815
4497 16105 -177
9643 18033 30345
27738 22853 -2237
12573 8629 9948
15423 15165 -1581
7804 5750 16633
35406 23879 13130
18327 5116 -2535
28653 24520 1531
2110 34237 -242
6383 4173 26530
1218 1843 22549
10484 22210 -1583
34140 13160 -2106
32316 8614 11732
26246 17682 -2792
22214 20569 -1554
14055 29633 -781
12764 12561 -859
31641 27944 -1178
15811 19638 -3307
20755 23134 24085
23297 16884 13723
4554 1619 -3264
4262 17581 9024
27129 18045 33332
36725 3543 -1814
7406 14438 37018
27640 18946 23838
31722 29127 4467
3398 13009 -642
16956 11256 -276
15918 35598 29369
9302 35119 -2759
35352 28752 -908
27758 8264 -1999
36907 35390 -1248
9504 19783 21794
12323 24940 8753
16133 25637 29863
5915 17567 -473
18884 8844 778
6172 36730 15137
23091 35491 15606
1143 12888 7780
15897 13579 -245
36469 34624 13828
6227 49 -2363
29465 8516 -3445
16562 8839 22223
24017 243 711
27015 31303 29996
14069 6173 -2484
37069 36745 -3419
17668 578 -152
1073 16091 -3137
33773 19274 -2730
13358 36943 -2425
27145 4489 25280
17813 3117 -3264
14771 30994 -1538
3456 26671 -2587
32692 12037 32890
10045 34331 14017
26042 10876 35513
10930 5978 25664
34855 35915 -2078
17451 26416 -812
21852 32129 -1088
11432 493 -3324
18537 4677 19320
17149 12767 -3416
27123 19968 29215
11828 2435 12407
11004 16099 -2680
2732 14896 31046
16964 28832 33034
9212 16072 -2839
32281 3444 -1393
17926 13604 24936
14545 5388 30575
9068 34143 -310
36302 21650 32903
9904 35185 -849
25734 25490 24471
23370 234 36204
26288 10972 2960
9233 35220 -2591
1127 2402 34652
6854 7641 1067
21417 8608 20831
18073 11618 -3015
19801 35436 -2754
1867 8648 25464
19271 34243 6433
32682 30755 -2815
20164 37231 26080
13191 36662 -1547
12619 14024 30617
5270 36723 8956
24249 28422 -2756
28049 12240 -1566
28936 5649 -2778
19533 8605 -2849
1226 13707 3380
28015 31898 5326
16774 32787 -2222
11029 26955 8132
36116 27907 -1844
4071 16657 12276
13707 34517 -2953
10392 14504 -2905
7750 8219 -3576
16954 3056 -2383
630 3672 23457
36101 29003 -3681
29157 28628 31425
10144 15692 -3221
14037 8799 25540
31373 35951 -2614
11603 19849 -1819
989 24367 -502
14839 33936 -1986
15036 35186 -2303
26742 33735 28724
9377 30422 25859
29067 46 29022
20930 17896 -2723
37084 21371 10609
17357 32253 20694
25814 28475 14540
34695 31117 -3153
9807 32962 -3744
31968 29431 28968
4320 34493 -3438
20176 25782 3662
11497 29652 17703
17969 29043 -1339
10009 6149 -1286
26367 10460 31161
30322 2940 31426
22510 29392 18365
33822 19160 21464
28230 17861 -3175
26498 22920 17658
32770 6509 -3488
17962 12960 -376
33094 2219 29516
31155 35199 18924
4568 32078 12227
11477 7914 20885
29134 29257 -875
28814 28070 14864
12856 17941 29826
24172 4850 -762
21269 36879 34909
18110 17100 -1439
37175 22370 14774
5693 21148 -1494
7914 1074 -1002
26872 856 11793
10370 16631 -2218
25127 31299 2075
11138 32818 29354
26635 9129 24529
32112 33193 19867
7469 3668 -3253
10706 5421 15714
21014 33530 -3685
22799 7822 21379
20633 34601 39
9065 13511 21105
7163 37045 27604
20030 9599 17261
20828 34575 34967
29917 22898 35261
5850 20277 -1844
30155 18175 -888
5337 17447 26407
26794 20734 -425
12116 24554 -3311
37402 13703 16838
5572 33572 -141
32036 19668 8324
25149 16949 -3241
21223 22318 -376
16660 300 -2396
26523 28721 -1245
22566 7830 32364
13758 22956 3727
12207 28401 -1800
8455 22646 -1137
14649 3871 14243
18379 20840 -1597
8514 11803 -2850
25193 17249 30990
24087 1424 -2437
19048 23916 15606
29483 6546 -763
10441 2740 13353
2182 7690 36070
14081 16160 6027
467 2901 10633
16977 7282 7319
30092 33892 -2646
26886 31683 8831
28107 27247 18770
19512 6078 -2166
32186 15171 12700
34323 24678 -3107
27202 4987 26963
30962 7893 -1774
12184 36984 13705
16472 5989 9741
18639 29164 -71
16050 9627 -2991
27865 28218 -3343
94 11867 -2210
736 2037 15124
4835 21632 8629
20201 4060 -2161
18034 30868 7333
15852 21995 26100
16188 9482 -2752
30038 30878 21616
24578 12475 18934
11919 27999 -1602
9422 14461 27372
28115 35071 -817
35107 20420 -3321
32120 32264 12727
33960 36693 -2585
12755 31704 14212
27934 11329 -3060
1009 16178 -2713
29378 36875 -571
12829 34888 -1498
14834 36975 33045
5593 31028 29317
7759 27823 17281
14440 14003 16607
9796 35961 -1431
33777 35895 -1770
26795 33936 -2079
21472 21832 -2199
731 34245 -3088
15869 26001 16518
30102 23665 -1712
29555 30953 28127
19114 34143 -2135
4647 3401 -3137
2785 21974 -1734
16418 37198 35980
29301 31601 -151
23928 25021 -2953
294 32526 -2052
13396 24220 26796
17738 4515 -3247
17245 3551 -2761
23711 16666 -199
8456 466 28266
16287 35934 10738
26228 1943 -1441
19881 22023 9899
15324 1929 -6
22412 4456 -2040
2559 11579 14609
25807 12436 -3565
6950 14128 -3368
28278 25671 28706
5189 28135 -2049
11318 13944 16090
675 17700 -281
36812 18939 -1976
5315 11229 -2267
0 19028 -2791
35282 18231 -2778
30468 1754 32600
5951 12922 -1170
7987 16815 19508
14626 26842 -2945
23491 6287 -2055
2627 34761 12490
18118 5808 -1145
7980 6877 26829
14207 26462 -995
22483 19198 -415
29688 17167 12466
24332 15726 30072
14968 3400 -1347
22989 33174 -1233
27571 385 15104
10411 3403 -3699
20490 20868 -2573
18411 7478 -172
4986 25052 7986
22233 4589 -3472
36324 19280 -3556
36265 14000 -1698
35743 21642 19557
15877 5199 -692
33908 19089 -1166
2764 20602 -3748
8028 27429 -1346
9049 11727 -703
30572 14638 10914
7539 31494 -3640
27358 12267 10656
13486 10609 -698
32929 32856 9283
20857 25813 -1368
21621 31738 -2696
21755 35450 63
33966 2043 4813
35911 23128 5351
8603 5946 1734
16968 10552 -749
6368 16325 30144
25411 3921 -923
34853 11603 23048
6588 27953 -3419
36448 17366 -3079
3360 29052 -1843
17026 9215 27356
3428 33373 -2764
21321 8746 -581
34084 24221 6237
23413 34414 34431
33653 33334 35636
36016 31564 2841
14572 9199 -2223
823 3381 29009
26338 9161 -724
4712 22154 -1719
20777 11774 4306
33410 26499 31136
11611 13668 -2933
35649 11047 3763
2591 9818 -953
29999 4680 5243
21542 22812 -3236
949 18179 21483
9289 26206 -282
4191 17135 -2177
8752 34227 27478
18217 2696 22265
30186 16147 -2609
32023 37148 26371
30533 33049 6703
19795 7340 4750
23540 25366 23298
3711 7432 -424
4842 35710 25039
5230 22186 10238
31448 17455 -1069
30953 17656 -784
12767 19052 18145
28440 4413 -3134
11118 8314 -1091
36313 1842 11116
11860 14412 12271
1817 15687 17190
25383 17089 -768
5233 22959 13714
17345 31467 -1411
12634 28266 3261
24736 2956 -3227
1369 4331 21726
23394 18068 -2337
13360 33880 3669
27917 27044 18875
4815 34938 -472
7120 5571 -2804
20887 13222 24265
34644 22315 402
22120 113 5401
29123 31725 22041
24334 3749 -3700
10611 15540 -2879
22318 31709 14234
29487 31021 2151
25934 28520 30095
625 17811 -3655
255 25796 9494
15834 13843 -2094
27878 7657 -3469
1222 20637 -172
6846 28677 27848
12275 16827 15303
15960 36464 -2512
15102 13447 -2934
3788 34226 -3633
12240 13369 -2713
12549 4632 854
12608 23533 -2261
15826 30393 15397
19773 5565 -409
18191 26342 -1280
281 18528 12877
20241 21388 25871
15990 27613 -200
23595 23631 23868
14141 4974 -959
9090 26665 -535
21031 33452 14620
70 27833 15393
17269 27290 -2759
1990 15559 4197
552 10041 19279
4414 15706 -225
18234 21761 26584
6893 22775 8379
7857 20748 -2540
20191 35226 35090
9574 13970 127
27809 19397 491
788 9408 21356
4540 12776 9362
27134 34384 12261
29519 34365 -2633
5849 37040 7221
22632 2311 18505
8195 19428 14251
7212 13137 -1426
16449 24884 20820
22747 17778 -405
7257 22456 -2416
17270 23113 -1338
17639 18313 -129
9370 18685 37133
2323 840 4788
5600 3639 -3499
12155 20319 36471
33642 18354 -1934
16427 11347 -2426
18773 10150 -2948
22923 8851 24295
23594 144 9002
16382 9624 15979
26588 35647 -2355
9883 35456 -1466
21597 19546 -189
21 6166 -1607
25672 17186 19120
18718 16267 36231
30209 7729 -3621
25137 36907 -2919
10864 9575 -1564
22059 32901 -2339
377 35251 5836
7616 31860 4295
30748 19662 -3475
4734 16142 -1783
23276 14277 -450
33665 13788 30799
17317 6955 -968
23382 12388 37024
6411 19502 34866
30353 530 -3188
23764 34255 -2522
17260 23022 10213
1283 10181 -3137
6595 26334 21267
16302 1567 -2710
23302 16816 -2888
24316 4905 25920
2990 36906 -2750
32608 14416 -3749
2420 1894 -2353
19608 14049 18454
27129 21990 7342
13140 22297 -1698
26773 4793 -458
1386 37146 -1052
17387 31876 15468
12755 18530 -3214
5668 18641 22142
35114 25946 -1958
13273 12396 -2359
9621 2937 242
36751 19018 -1793
3063 8544 6315
35058 27547 -16
24365 12452 2466
33982 34748 -58
12968 2097 17642
29887 2508 -2867
23236 7007 -910
11551 8320 -1948
22231 2875 -1875
19419 33048 -3519
15498 31987 -2757
770 21651 -1779
23145 8098 -695
28083 31728 31306
10433 17659 11572
35199 31745 -2243
5549 26353 24188
37493 36891 18802
31113 30608 36752
24593 31926 8301
28048 14067 -1438
973 1467 18146
10849 32827 8052
32227 15906 -284
25665 15947 17468
19655 25773 -517
24439 18329 -549
34346 10358 29174
7412 10574 -2860
8814 11711 -284
21444 34682 -171
2364 22481 -68
18857 31061 -2594
9198 29833 11361
17148 4420 -1549
1364 25375 -1520
15303 25660 -3159
13533 33016 20443
16542 25676 -3170
2401 20708 -2406
16213 3340 27428
30672 29277 28107
25840 5422 18901
34680 2327 -2740
657 1158 -94
25832 35648 23476
20346 15970 -1432
6204 21881 18654
3984 21207 5274
4735 25339 23338
29604 5458 28231
14411 14339 -138
4419 8785 -3401
21397 29077 5482
21721 11482 22740
21106 34529 -20
3656 13595 3777
16767 2816 -1869
12701 24482 35017
5218 18887 -473
36552 1850 13497
21794 27267 -3351
2542 24978 30418
22810 4711 32960
10438 24416 -1289
37106 4522 30803
18002 37439 29299
30755 30714 -1756
18517 2269 8476
15407 16193 -818
36038 33051 -57
998 28366 34785
12645 12190 -3654
35803 16953 15084
1381 5477 -1990
9036 8465 -697
872 9650 9026
3098 1739 648
3672 23540 14321
32792 7589 -3664
18605 31309 -2717
27851 18849 -1656
5377 19637 -3232
30466 28848 -286
5199 3563 28324
36337 36229 -2066
12566 34786 -481
8421 33979 -2625
31202 15395 -579
36567 28079 -3225
33739 20380 32648
35493 34817 11209
31711 35668 35662
15085 17040 28946
1179 18777 17492
22899 5777 19718
25553 11349 4779
310 14760 27146
19327 11850 23153
2326 14571 -1128
28369 26662 8412
8365 23655 27041
15622 10086 -3091
2132 13050 -1404
12235 25636 30214
21174 26176 -981
7238 32696 -2089
30143 28719 -1273
22908 15695 -507
25961 30409 36873
28364 12314 6595
26405 19982 31614
21497 19267 -3165
1424 266 14307
27650 32193 -2969
37162 11841 -3063
25750 14 -2074
28534 9360 35139
4330 37497 7824
33937 32688 -3550
22119 8991 17783
2746 33346 -3432
32549 6269 18798
35445 3252 35573
24400 10367 -1449
12831 34133 -2592
12477 15410 22385
28670 16495 -1702
15465 33472 13320
19470 30925 17218
26337 31 24336
1176 26796 35827
3518 10142 -474
7928 22180 35475
31309 5320 -2657
15939 24141 -1136
8871 25470 35421
28330 9689 22639
36758 15485 -2383
20582 27627 19929
30099 28609 -1569
21899 4660 -2111
11625 37050 3687
4023 2296 25551
29286 26814 -3231
3313 16128 -74
37175 12786 -412
11291 25114 17220
24456 36496 -277
25928 33730 -2854
34483 15502 -1432
539 22782 -1057
17252 23097 36426
9775 35714 -178
23830 21567 30735
35026 9229 16977
22591 3065 8646
16448 17088 31453
1432 30706 33942
15100 30621 -2108
34140 12344 23087
8617 24795 34134
3972 37257 995
22539 29425 18371
4469 15104 28674
18474 4527 4593
24209 18441 -3019
37138 6019 -2971
6184 34877 9537
31802 32336 3885
19662 28587 -1301
12453 305 -1127
26720 7109 -338
22876 5942 -458
7900 28568 -1713
25008 27944 -2076
27705 12787 1877
33684 13890 -3563
32588 14204 -1604
1829 3244 4512
11847 12106 1687
19980 21088 8574
5247 27649 349
15181 30122 -2830
23997 28227 -816
22876 28068 -1862
8663 35129 -1562
11200 28116 10578
21965 29114 13577
15340 20289 24771
34238 27481 -2050
8171 4350 -141
24464 29149 -1805
5619 23282 -452
4744 18381 21054
27067 21314 3854
916 18357 -3716
21095 24699 15390
6122 10824 -232
34677 8159 32228
7896 1866 2790
4103 30205 5955
14703 20445 -3457
27428 16917 25640
9288 37046 -2577
31522 14389 26295
3449 18549 -2177
24099 30241 -931
12469 18188 -2655
10829 28592 19944
9567 1825 -178
10455 20669 5025
36437 26394 -3478
15554 36066 -2804
32164 10221 -3693
16887 18412 9364
27092 8871 -304
30118 13457 19389
25871 21685 -2830
35077 31787 -3631
22768 18822 -51
9669 4755 9330
28820 3112 -1581
12076 6165 34675
34674 30326 -2664
31776 27466 -275
11356 35812 4633
12770 18105 37407
14593 26746 -3701
24441 19552 -3285
10505 1963 17232
23557 29277 -187
22033 28709 2187
13469 16635 -2238
34354 6594 17308
32816 33695 -1964
28676 28771 22334
25916 7322 -1071
983 28408 -562
30046 22656 35702
1884 9634 -3566
29197 24628 -1914
24758 18532 -901
24808 33352 -1962
18411 2957 12910
10456 4703 33649
1870 3903 -2487
35274 14962 21905
12045 19255 14384
12676 30791 36580
15566 34730 9601
18537 29917 4654
15435 29482 21830
2425 13114 15463
14917 4425 -1976
864 8208 17801
3294 16599 -1289
16915 7117 18250
3516 24393 18043
21911 14406 -3
36487 24937 37010
20847 12332 -79
22394 3920 34235
34039 20927 -2981
17040 5647 8582
12449 11331 26265
35378 11765 -1769
35100 6083 -3279
9898 24174 18096
18768 26879 9095
24516 35909 -1396
33072 11428 -357
9522 26700 -2885
356 33531 -2423
15714 23994 15229
37056 29884 23743
25195 33125 -3405
24677 26326 23319
23887 31587 11585
17859 1615 20551
1355 13254 26432
8140 17966 24563
12845 1702 11073
33252 18203 7914
18456 26719 21039
10721 14017 21875
25461 31543 18068
21298 24116 -3242
14000 3636 9876
6095 32398 34732
15581 31531 -3703
33760 25804 -927
24552 26133 23635
35035 19114 -3570
9819 13037 30057
9428 16287 -1094
1218 579 17818
37141 37047 37487
16008 23723 11941
10877 1417 20772
32169 4889 19602
11029 8133 11536
33855 14957 26766
14081 4962 17282
32038 4378 30596
2783 25679 -304
7072 5171 25863
22610 15161 -2460
10029 20674 1620
31612 23159 16409
2804 37368 26688
469 32170 2892
2204 23195 4206
15346 18678 30317
11310 1613 12940
14851 27706 -2688
29259 1007 27118
29363 35122 -2988
17186 13736 22567
9695 3021 -3107
35669 25935 -2174
24898 20179 34220
19388 36103 12590
3301 21323 2992
7846 33723 5316
26044 26163 12308
24798 30059 32530
20349 36689 -1467
355 34287 -482
15974 1609 -1129
2722 2939 30311
14237 8356 3711
21968 7845 24237
31586 12695 7384
7634 31468 36801
8212 7654 -3464
2702 17298 6462
7031 15097 -2787
12184 16409 16400
6195 22202 27209
7787 25724 11671
21824 29875 33344
21034 36855 10291
31157 9214 -2496
22395 32445 -749
30712 4923 -1898
14216 26752 1577
19511 36522 22317
6964 20782 26187
8679 3398 26279
28093 37203 -3550
20176 35336 16587
23302 36352 20438
31111 8604 20798
11688 28236 -689
33663 22537 -1203
24978 20109 -2401
36344 34948 36389
34099 7512 12973
9220 8910 26531
5161 15552 -1031
11612 35348 -340
21394 23692 12397
4291 8266 957
8803 22851 -2686
13057 12582 -2268
3851 755 9905
15505 32923 7693
11783 3548 -2640
17713 334 32682
32890 31678 -1416
19638 10754 18190
10013 25849 -856
36468 8365 -1456
13239 16871 30424
14662 22419 24001
7684 24370 16124
10111 4573 32424
20131 12991 22279
28930 17625 20874
7930 1866 -3744
639 29437 7874
14855 977 -3444
28518 12268 -250
24042 20658 -1821
29599 25653 -1011
4874 30286 -1474
29403 21937 2646
19147 35541 -3658
23716 10493 -2557
4416 17425 -2234
9634 5463 27707
3276 27573 11679
18538 16219 -3099
20104 37479 -1503
2004 17594 2627
28873 10240 19696
29085 19733 10197
31131 28188 -1762
25191 15686 -3679
25063 25636 -3749
32153 3458 17000
27603 33466 -299
22064 34769 30945
23014 2461 10368
37495 16214 -2578
22322 9260 26483
6219 25948 -2065
18304 31831 -1989
34746 15824 -2250
2591 10992 -2965
699 6342 -315
36428 15219 35641
8541 27043 11799
6380 2710 25990
27477 33850 -2402
30374 20506 -3276
34085 8669 20416
25332 25242 4827
30329 13411 4126
15483 3718 -2205
36766 23574 -3173
35480 30096 26728
37047 24912 -2846
10756 29381 4914
14519 8357 22607
33824 33074 6103
8833 25384 30204
22811 26881 -154
10927 26025 -2741
12072 17684 -1941
7000 1725 -2369
22568 35310 -1307
13785 35613 -2860
36391 4794 -2976
32434 17081 7947
8795 12382 13743
3056 10339 30495
15856 18632 -587
6846 10602 -903
23805 19326 -2374
22626 13122 -2767
6708 5951 25997
29175 34342 -133
2868 10110 -2236
16962 28999 -1622
11863 21310 -1118
5427 8864 -3113
2473 8985 26798
24155 34724 -2614
3100 28965 -592
16221 26523 19478
12369 29966 -3203
15476 5492 -114
33587 8371 -440
22595 13231 4513
22126 34238 7042
3364 29437 -800
18374 26581 30292
36155 19928 -27
31929 17300 13378
25143 10288 -3538
8297 9428 -1384
10256 36806 22009
30226 32942 -2602
7708 14483 6805
16314 7842 3276
14070 25648 8669
13807 31922 -724
16639 29006 13995
3538 20743 27747
18801 13806 -2395
37000 11198 -3746
2768 37159 -1996
4229 24094 7823
23421 420 18574
35155 12639 -633
1904 33078 3398
36403 13368 29586
21560 24144 -3054
19778 28165 -3194
11864 28640 26234
34224 582 -2892
4454 25175 -1534
37320 16347 12767
36384 9488 27620
22569 25086 -946
31890 16001 22817
8173 10560 -695
14101 8897 11478
28208 20360 32802
7664 28145 -3134
18988 14250 24083
14951 23835 -3515
8023 14988 -3011
13219 1687 2464
1724 12307 -571
28230 8274 31322
8805 11213 15064
23207 18152 -1810
33185 8125 -3458
28747 28048 8149
36390 1031 -826
27537 17102 3436
29274 17778 10914
35657 33649 10479
12381 8123 25875
35578 335 18834
7746 1674 -3246
15727 8092 7897
33210 16258 36925
5953 10994 32612
34991 24465 -2770
5311 12207 -3041
19838 13628 -3404
6492 34372 -1289
29730 1090 20249
35603 16746 7886
19678 32341 -279
34850 7695 -337
3305 28574 26940
31804 8581 -759
32583 21439 13807
26599 29530 -896
10042 6402 -3414
14035 23332 10014
31820 15048 1780
17061 24262 -93
17607 10151 34917
22698 21864 12680
14860 20474 -3555
7728 26435 -2042
27579 15339 -3746
4059 3867 -2906
5138 22706 -2724
21431 5145 19291
15175 37237 8704
5288 10235 13685
15177 30053 -425
3051 13814 2399
33709 10600 -3256
10325 3952 27773
12402 21629 32189
10141 12064 -2223
35430 10459 34388
16466 2347 -1573
4935 13921 29048
13480 535 -973
33258 36564 36433
9017 27073 -281
17913 5382 -2002
23392 23415 8048
10781 22573 -2045
16160 29425 -55
29916 17408 33914
16262 1944 26472
1440 14544 32833
23627 11840 35459
21587 7811 16495
32640 13100 5797
15082 3918 -3267
11799 15813 21337
13816 25636 33709
29105 1666 -2071
4916 8229 4674
2912 14236 5017
23322 12106 33401
36926 15517 -2632
37247 34230 336
34721 21308 -1340
21601 15601 -2400
14981 30626 20630
700 19717 34370
27783 23941 -1682
28815 17111 4455
3465 27709 22790
30372 7363 17467
2850 23462 18278
12418 1072 15647
9937 5225 30289
7721 24192 -2615
28225 1627 -2972
30005 24142 30275
37085 13164 19628
27049 34264 16747
24176 32063 -1221
4187 18992 35804
14414 2081 2868
6000 8658 8953
29329 2236 -3728
29170 32670 -1733
34190 21983 -359
14911 33423 31118
11263 23817 35703
2218 11425 27073
23486 23377 -39
15767 36712 -552
30921 22777 -721
28039 6763 -163
28223 7120 -2939
35666 6681 -3325
24036 8463 15780
27439 37008 10743
1200 14474 401
5904 25931 2317
17944 1324 -1332
15232 25662 77
15306 35069 26935
18533 33432 26659
13637 16903 -3519
2001 16140 -1195
9198 24905 -2851
1668 22016 14918
17003 23496 29086
648 28315 7045
5055 10171 19825
25548 21046 26768
16089 9650 11832
28538 31594 34801
829 18496 -1979
34471 12068 1982
2124 20129 -1128
34408 16870 31634
31127 28204 -2895
22512 13111 12922
22405 13449 33387
10667 32426 20291
28570 32164 -2837
7426 26045 17487
13924 2519 13510
19159 6226 -842
27343 3656 -1457
26751 16729 36063
28532 23187 18899
32428 19247 -2761
13055 20328 26286
35528 22569 954
7529 9621 -1118
1596 21655 1067
36954 1406 -1141
6217 3248 -2931
5088 17413 -3712
15568 29595 -1747
12281 27814 3905
16698 8284 13058
5244 3963 -2166
24023 326 -1456
19140 25312 9264
27866 21305 -2896
13137 26839 -536
33031 16622 3886
8511 27414 7498
27404 31748 4789
32306 22270 36644
14686 28104 1740
25027 4281 32520
8441 324 -228
19876 8997 32718
16449 26507 -1707
27353 18270 -2592
20251 36559 22144
10115 32139 -174
12493 20265 12910
25800 6083 27011
32027 26579 -151
23713 34526 -2255
31456 32317 36248
12839 7086 -2777
36674 37295 5255
9974 37066 -2992
4241 21311 9837
5671 21566 2479
10382 15010 12575
29270 1542 -1674
24360 17164 -1604
316 959 22764
16409 23942 18638
18029 23847 -1060
25099 30634 -1673
11122 9082 35771
26699 11335 -2162
10521 33081 -1420
33389 34157 -669
27200 1557 -1683
29035 17070 -3121
22695 13438 -3306
30985 32321 15781
17292 18991 10136
33674 9040 -2959
7479 29330 -654
23944 14913 14767
23087 27771 -148
12604 9054 11957
14862 22123 -2178
21273 24592 25890
12720 13446 -829
10250 4743 10308
7590 32225 -2891
26756 33270 -445
19956 29784 36410
31053 1160 9814
37139 27349 2996
8248 36876 -716
22165 8723 17526
37211 24951 1896
37053 2934 -2020
17717 22624 26703
37259 22134 -427
5146 2933 31723
8981 24390 -1160
16679 32879 -557
30880 7909 -218
37264 25868 8443
22502 11093 -2156
6832 3391 15512
15389 20751 -2422
6478 12424 8722
35164 31923 14071
31951 15314 18984
6627 17913 37153
35725 933 -852
11008 30892 25514
22032 20425 7788
32123 3303 3481
12739 29459 5814
17353 2757 36108
33444 11061 -1003
23842 19765 23867
36074 8161 10777
25723 22636 10793
8104 3153 -2482
23276 22891 -1364
9398 28999 -39
3271 16486 -3030
12734 5717 -1735
5888 19727 -3184
22904 20635 -2380
5957 32519 18641
34915 27199 7057
33998 591 28522
29601 32638 -3718
17206 4587 5230
5058 13801 -3676
26399 25162 -1661
13851 8148 25914
30621 24029 -860
17745 31210 30576
30132 15616 9791
32470 34648 -3560
27694 12763 -3405
33491 22663 31893
5637 1305 -3517
33970 22848 25884
28796 36121 24409
29868 22286 8199
28287 30490 23060
27136 4510 -2071
27917 36550 17245
28856 10702 -3357
1061 6578 -2151
14554 7249 7445
13533 12733 -2976
31638 34027 18962
36884 9248 7450
6025 18975 -2411
27129 18798 32241
32557 21956 -2109
21011 20399 26866
27749 31303 23457
12425 11490 -1629
18222 8215 29008
7022 1993 18536
9023 32279 7141
33006 26267 -347
6120 22205 -3214
16353 34305 -3354
24943 11195 8393
10763 28267 18491
11954 34279 -2431
37346 24418 -3312
6729 33080 -617
32478 33623 12608
6797 9299 1891
4592 5373 -660
35829 31744 30460
7542 26013 -609
11834 22458 107
1910 11689 -2749
18633 30373 -304
34783 26248 -3534
10126 4650 31341
33853 31853 -535
12688 4256 -3665
16076 33897 -530
1870 16198 10125
25427 21683 -1938
34031 35942 -2021
2836 2730 -1153
24415 32419 -2619
10125 9496 15336
8991 36607 -2310
7366 10140 -1600
17054 15431 19065
20408 28323 -2063
18140 29889 -641
13035 5289 -2013
12557 31261 -1968
28565 30090 -2909
17531 31024 14337
19267 23280 -3055
21894 11176 -3554
12339 2031 1467
11110 1218 17249
25889 12532 -2337
6535 12447 -2929
34099 28549 -1584
36656 24323 4609
14473 5828 -2812
24979 19489 -163
24965 11637 -1439
25307 9045 22917
7919 33955 -1295
34969 20561 13510
24758 27865 10682
27009 35972 16293
8742 27611 12950
14423 27037 -1283
18538 31110 -2851
34495 31715 -3477
10083 23826 -32
26648 7716 4527
10527 23423 18952
31655 17348 -2449
34764 11462 -382
2557 36027 -2105
14148 8247 13691
25497 23282 -491
7648 12928 20985
28352 966 -798
10676 27887 -230
32943 11258 34714
4581 28756 -785
26361 11784 -1772
8047 16903 -1621
26960 20957 23867
20428 36103 -833
13691 30279 -2052
15296 31313 -1654
3865 28723 13079
8200 18230 30652
25194 4518 3093
25662 2200 16977
33038 26791 12122
24583 16027 -738
34817 37480 6920
20618 17480 20095
2387 32219 -3747
31452 23041 10609
3292 127 3201
29685 6005 -3052
18347 10065 -574
31583 5590 -1196
8925 5677 19446
36210 36550 -694
36687 9508 -1569
37001 31273 -1903
33310 24031 23827
8756 34079 11411
13032 30753 21732
21147 6390 17738
8938 17282 8376
31824 14186 3627
22178 4689 -3715
20885 30559 213
16631 35402 386
2162 34435 9759
15944 8719 7905
31379 35611 -2475
7280 12825 -1507
10667 13161 24518
14679 32361 28987
27880 34494 -240
9251 33304 17792
22900 32911 21239
8529 18235 -2332
29341 17598 34019
15205 16745 -2430
2778 19149 36142
2454 17323 32875
9587 15604 -626
3642 17324 -2122
33436 4621 10259
8364 11758 -3344
2645 36218 -1642
35614 3482 24740
31733 1909 -2973
8633 10658 -1529
22693 31543 -276
1517 24936 21597
37061 11110 -2378
10005 797 32298
10809 25463 17142
16710 404 -2565
5196 9416 14616
33090 15270 -3440
19507 32764 -253
15294 10735 -299
4368 13455 -1357
22484 5281 14038
2297 21909 -967
34366 30585 29315
20022 24013 -670
4996 10328 36610
29825 25655 27715
27381 12351 -2470
13102 14982 -1997
25599 5339 -2946
21006 14857 23998
19098 22761 28296
16765 22867 -3026
6055 5146 25982
32456 18406 -1743
18016 12830 -2811
8434 16165 -2133
35108 301 -102
27877 28795 22423
15630 36400 22521
34950 22941 -3443
24099 28396 -700
29665 37272 3757
938 16844 25320
33479 16014 -2744
15584 9148 -674
32394 7551 21266
25435 33939 -3596
22681 31171 -564
8411 5423 -2960
6630 6014 -3612
15845 9928 14135
7540 27578 9671
34602 14255 11622
12285 28099 31487
3410 23731 -1485
35293 22299 16884
5031 7380 -3001
11607 23155 18355
24730 1818 33452
33577 18215 -2351
10625 2063 -3667
21176 36809 -3494
791 31998 -3623
7744 30472 -148
2445 13352 4513
9993 27211 25294
21836 24116 -2154
22539 9241 -2910
917 21546 2896
32671 32219 -2166
30233 21760 -3441
32622 11748 -50
28479 9920 -2502
4224 20092 10023
27889 5115 15165
6588 22670 32360
10220 33849 -2372
26504 22286 -3113
16049 3486 4154
23181 12079 -1321
36075 18882 -1211
32634 35051 25775
34532 24903 8778
27915 5009 -1240
5271 7983 24516
13223 7338 -3008
18268 21258 -309
29806 32621 25661
828 14552 33336
23086 22236 -2215
15488 23076 5475
15287 4104 2212
29915 13192 16503
1424 21208 -1798
21980 23741 9944
26153 15328 -3361
35143 2018 -3440
270 33906 5137
17695 8244 28119
2203 8511 -1186
15995 31550 -1159
27631 15983 22389
28573 27867 -762
493 20566 6858
7935 23957 -1583
1427 3538 31412
31532 21896 -3394
22475 3195 -2223
22759 18670 -353
19951 31936 1417
12916 19881 -3050
2040 14018 22818
12410 19140 28355
9907 30150 -1148
27614 7643 33887
24329 27196 11975
29604 31336 -521
32296 8524 -2573
2204 36319 -2317
23199 29190 -2336
1469 10240 -2352
9186 21034 -2063
16005 21447 27471
36597 4648 26681
5141 1720 -2380
29548 9305 21288
13677 31558 -104
33901 21808 -2115
10111 28709 -2716
11295 25882 -499
17254 22447 13315
8902 33098 -2465
22843 27812 -1744
232 2460 -1516
3631 18505 14003
9022 3708 23226
23904 25245 33600
5415 35307 -542
35007 5846 -2653
29465 24623 19708
834 28777 -3140
24094 13944 3419
29053 35041 -145
18266 14527 -1717
29292 15656 2856
14099 7555 -1667
11763 12863 11085
20480 18693 -3713
18324 21797 8745
11484 24511 34972
5149 17684 7315
30444 27818 23550
24002 34028 -1178
34311 31025 25343
22943 22210 24239
7950 9980 5116
24530 11394 -1372
29847 34342 -508
14934 26460 -3422
37230 32869 -1943
23290 11544 37448
16330 25029 -1678
29708 27578 -3460
3439 27010 -829
32004 21275 33110
9495 16633 35074
29907 31071 36022
5039 10089 -3410
2106 26079 -2980
35990 2862 22540
34366 31558 5233
29998 1939 -1082
30688 33329 -3560
3701 24457 -2950
21568 10981 -660
28778 3580 4954
20367 8210 28612
15368 15481 -459
20203 36498 10893
9423 27031 -3037
35998 13933 20544
19775 4874 -3735
20477 30578 21225
25820 31692 -3699
6928 1532 -1945
23685 28817 17983
7371 19385 -2227
3096 9241 -658
35911 19748 3657
19734 11818 33017
27065 13277 30586
20026 28852 14921
34534 13116 -2897
23290 34453 23438
2026 8549 -3174
5652 978 28326
116 33 -497
2594 14893 -2870
17520 31458 15672
10710 24751 29734
17878 28145 14489
14635 28653 31337
32303 26232 -2695
4211 7030 11238
770 37108 27186
16379 31061 -2629
47 7486 1484
18933 6421 -1760
32277 3278 -1248
4881 13011 -2558
25318 8533 -1804
13173 671 -2924
27278 33815 -1947
25410 37035 5573
23272 14432 -3048
8463 33060 -2009
16777 13198 -3591
24999 17324 24820
17186 23414 -3461
26087 5214 -2008
28722 3903 -1048
30568 6855 -3648
11445 23948 -2044
22728 34104 -2542
20293 16468 10718
24813 16993 -234
3890 14272 21011
22087 25181 17503
12302 17352 2892
16826 12080 33682
11813 30712 -678
32182 13118 15874
16918 18905 -3743
30451 12550 14514
24981 35777 -2609
4680 15362 -216
35979 19605 15169
29354 20385 -2805
6063 31725 -2751
34014 221 26121
25886 21423 -1799
12514 23516 1049
7569 15036 -3006
7592 18408 13381
11085 20618 27598
7299 29646 -1103
1357 14385 -337
33229 29208 -428
15019 18710 -330
33918 6251 -199
26592 15154 -3502
32313 2579 -2217
202 28250 8192
29056 32063 -2693
37028 28644 -2320
33495 20465 30766
20717 32236 10686
19215 15670 4992
37196 21116 -2214
24014 33611 -3244
4079 31359 -20
12842 7963 33929
18669 37084 -407
32294 33305 -18
12067 24333 -2313
21903 8102 -2916
6230 11302 21915
1955 7436 -3525
12658 29317 10989
12303 5725 -1529
30480 9904 -2596
7405 36721 -2554
13702 6154 -3516
33926 20010 35108
24114 3243 1807
2680 31901 -1622
30 6283 9692
7234 18708 -3599
19624 12118 -2853
8925 22706 25236
729 27785 17116
26324 37288 -2488
29868 25065 -2760
28911 32337 22896
15846 11889 32721
8013 20345 -2077
3744 25026 32332
28733 12024 8720
16026 2086 27270
33169 35280 32735
31847 20294 15390
502 24249 20316
35500 29050 -3735
33151 8584 5450
33351 11100 16990
31959 24334 30647
9651 5660 -1436
23430 27178 -2503
21591 20905 -2337
37291 19980 -3011
15137 20659 -2951
26549 19529 -1859
29103 23998 -3590
20730 35348 35316
26600 33310 -3449
3198 14252 -3700
16740 13987 25948
21819 28778 -3264
28445 8124 30474
21836 29482 -1595
32243 4226 -3183
11055 26581 10185
14527 19738 35784
16647 13324 21104
2677 36649 23317
19524 27709 6185
5155 678 15735
3533 5158 6983
5914 17710 27538
27830 5131 19498
22818 29040 -3679
7611 17958 -577
30411 25897 -3116
11313 6292 -2783
9581 9377 32769
22191 17690 32836
22508 35376 28811
26361 10298 29449
6287 33459 12415
13696 31272 -130
18160 33045 4464
6373 35592 -3190
24762 33623 -2349
27950 16859 27180
18864 20676 -1093
33905 6347 -1277
7213 4206 8507
9742 2419 -3408
34898 23396 -56
12161 21026 -2125
15972 35335 19384
27752 23659 -1000
15276 21994 -2546
8133 14474 12575
12527 2103 -2115
21271 22871 14745
12497 9165 17635
3226 36138 11775
179 35960 -1384
6649 32707 -859
11162 19734 -2242
21677 12037 -503
29778 21453 8227
4849 17789 9739
17693 33491 -1808
31251 13401 -1964
31981 6513 -2507
4345 4471 -3097
21495 17344 25440
3846 26133 9892
17963 3960 -1310
8467 13684 17677
27112 17301 -1880
33294 34114 -1342
14778 20692 535
6344 12951 28599
13354 5628 15923
12109 10846 -2139
30984 461 23925
7719 10293 -2987
14774 15637 -380
7766 18093 -2163
30773 24391 22850
23902 1279 -1009
26198 27035 5283
10889 184 -1609
30568 12555 20759
22757 28788 27892
6800 11493 -2466
9120 2578 24059
14114 20577 -2815
11784 22957 12628
27064 132 23940
31315 949 -3432
19180 28129 13886
20312 7094 -629
11882 15254 9377
21727 9411 -1748
34211 28268 -830
4025 23242 34596
28465 10039 -2155
21029 14984 32690
3490 21376 -410
9318 13754 34218
298 33621 -333
4328 30038 -1537
6423 17629 -2454
34832 1998 24550
27561 10961 -989
35700 26324 -735
9315 18236 -2228
16579 37421 -3533
17580 26262 5155
19379 31100 -353
2411 5031 11635
286 13210 14105
26466 15500 33376
20257 1609 3507
27659 18466 -708
5372 17303 12813
18282 22185 -3284
17050 23866 10119
26242 4198 -2629
36745 14741 28408
17623 148 -1745
32805 4905 -2905
5925 6707 -2704
20455 36277 10349
25832 28522 -1964
18813 35631 -407
12440 7099 34104
16168 7564 10553
17495 26991 -1862
20852 33799 25503
26897 1125 16100
23968 27031 23093
17511 6305 20456
23809 7478 -2122
6001 8656 -491
31903 10180 -2693
9079 32568 21297
34994 36408 -225
1717 21457 19084
24071 13010 -1223
24894 265 -168
184 16742 3710
11097 30518 -866
25120 20399 24828
18521 25654 -2387
12556 14439 -374
718 20843 -2442
29640 6485 32948
1681 15401 -736
12348 4269 31010
33056 25181 23891
35260 20202 3073
6043 8976 -158
288 15290 25519
27172 5486 -33
790 30240 -3636
8922 25866 21854
7695 28209 30098
36188 2542 27757
20576 35583 -2871
24569 14745 -2412
25523 16543 -3744
30609 37236 -2095
30732 19952 3152
19057 5596 12281
4005 8128 -1186
5837 29123 28270
8247 2894 -1171
15152 37403 -835
14479 22884 30151
6792 3934 8510
10442 11454 -851
8935 26941 -2925
28219 7931 -2446
26585 26845 28035
10944 14079 950
22319 21288 -1939
3921 27466 15819
14271 21123 -686
30202 35602 28384
952 27285 -3638
34112 3486 -3282
17132 18059 -386
33926 6211 -649
32492 29080 28861
16744 30456 29497
4720 21988 77
8001 26522 16269
21576 7758 -36
9496 16306 1468
28461 22882 -1783
33666 32889 12904
23953 20699 -3295
29918 18899 20132
7562 15369 12912
16745 16987 6971
20182 12691 31504
10845 25310 -816
9304 31164 -1409
30940 11480 -1656
8322 7772 -3197
30081 35776 -2695
1875 7249 1435
30316 540 13821
7902 4990 6709
5063 23771 -3047
34196 3660 21936
6822 16570 20585
31015 3101 11045
27772 18324 17726
36448 7503 -2961
143 31600 -2481
34197 22222 -2127
11117 9723 27100
34410 2739 -2862
15143 3090 10206
1937 24165 26226
15870 17182 23436
22807 23665 15997
19823 18394 30005
4414 7926 -1694
8578 3439 -795
9266 9344 -2495
3074 21991 -1072
25023 28798 30490
4481 14326 13454
7636 33751 -2658
2768 15562 -951
19640 17792 -1741
33558 21918 -246
10218 14761 6250
36938 14368 -3630
31982 36625 18414
1940 9335 -2309
13926 17343 9688
16862 16024 -222
6224 26303 -2090
26957 19603 12416
24804 28626 33644
16294 23356 -640
8878 22978 5797
5002 11192 20646
29483 12818 -3294
19432 17322 -1958
4436 26935 782
34081 22808 -2868
7144 10331 -3453
24804 28433 29159
4801 30490 23876
12929 11168 -617
10838 33737 -1742
23932 17850 -755
15268 33064 -129
35968 19296 -3309
21845 25127 10912
16824 21842 -858
29882 34473 -2814
32105 32952 -1765
2454 17547 -223
31198 19585 -2715
22290 4739 -645
32543 31360 23878
25953 12644 29547
35925 23573 -1131
2881 10738 -204
32610 33234 7214
23658 32840 35680
15338 35906 -2249
4385 22441 10632
2536 28409 13070
33889 10491 1418
29314 31370 15503
10387 32488 7636
8398 3529 -3354
11482 31006 10815
10778 21800 32379
7617 5134 -1102
9958 21287 6208
267 29580 -1922
26230 23025 32618
18613 20739 5702
11448 12455 35579
30142 3013 15907
6143 34443 13010
16253 4399 7210
11066 32808 -534
23246 21650 -1019
15910 24277 -831
30516 25045 20260
1032 34104 12973
32987 29435 12782
9156 25374 -2917
25939 11012 -3087
10585 20451 -2694
13750 16271 16377
37141 15286 9354
9670 17328 22720
27979 33524 -3669
31953 23621 9826
3256 34722 -3453
10425 36354 632
32383 36739 4844
20548 31061 -1620
33032 30103 35748
28339 23970 8743
12974 14526 -213
23239 4211 24698
671 5522 -249
15898 4314 -1258
33401 3699 -1621
30596 169 7819
23923 8775 17324
4669 18789 -950
26452 14487 -3370
6026 4582 -3316
11553 14885 37258
19015 19022 -3517
3002 8449 28398
8957 1442 -3566
31579 29923 30653
6533 22495 13613
27465 23282 -617
33639 11045 -2737
29059 19215 33992
2481 26093 -1303
22696 2862 -1072
11461 11119 7356
19182 5668 -1119
28061 7725 9042
2031 11281 -111
29061 221 23318
25792 4902 -2192
31866 19367 -1345
5525 24283 7650
9573 5872 -3627
30101 30802 -964
28178 21918 10740
8964 10500 -2618
16639 29854 -690
28212 22428 -3488
19808 5881 -3441
13673 33347 -2715
8046 16933 -1784
14583 33668 -1334
30837 810 -2599
24818 28002 30866
34768 12625 36457
4076 23988 -967
503 15931 28651
24858 18724 -216
32108 36087 -2045
35826 26564 32625
6649 2565 -2425
12262 31336 -335
22045 9972 490
6613 23109 -1792
26096 1433 -1331
34879 31858 32967
4765 4416 24021
1493 21361 -2612
33787 17267 4162
26343 25579 -3198
31448 7876 15835
24155 37216 -2227
37286 16842 18000
25039 12683 9837
22089 8590 15135
15028 3518 10083
6669 27446 15970
33488 35623 -590
7762 10946 -2063
24742 25647 6790
37407 1372 -2037
6000 33638 -727
11000 4865 23443
24345 34165 -1963
27975 15204 32717
24108 21375 -3555
23180 27370 -2123
277 9609 35304
17689 17217 25964
13057 9581 20118
28961 3053 16985
28370 33568 -1495
1469 35025 10273
19926 17355 37429
27672 4783 -1605
8090 5667 29894
7353 34787 -1384
26569 32620 306
16826 31497 2771
1213 14115 28315
31152 251 20235
1474 27250 8718
15349 30194 -578
1490 963 2069
35445 9561 6709
24238 15802 9191
6570 20109 -625
16286 1796 33911
10108 9110 27606
17776 9348 16808
21435 36409 21186
11888 36315 -1712
10219 27619 1489
34354 19050 -1784
12932 27725 -341
28833 28178 -2564
19977 10159 -1852
9077 12211 15033
21099 16554 -2693
29094 22978 -3595
25156 14028 20510
27390 33361 -3389
1997 1456 -165
11167 22315 -1977
27240 7471 1874
1631 57 28381
24844 17830 -1229
26336 24615 -2389
18301 35574 -335
12534 17128 2277
9121 19757 29613
30196 34584 -241
34169 8580 32430
26359 14326 13121
13061 11394 32237
5910 10260 -788
20040 1045 31055
18055 2457 -2173
18489 10361 11838
26624 26096 -2222
17388 33587 13451
28539 30820 6307
23137 33515 -3657
19187 16825 -1987
6327 22371 14024
9449 28053 23640
25462 28579 -3445
2435 15100 -3510
9136 37388 -892
30356 28358 -2917
9903 3126 18126
3944 6218 -219
32539 9050 -3364
19932 2578 33351
12777 9154 -3283
16851 27430 34276
2765 30404 -2717
24934 5484 -532
27801 8670 25260
24485 28044 23395
639 10013 -2523
661 5011 -77
17072 13392 26826
18112 6750 34238
23950 29701 -3071
28746 3993 -840
22340 7748 8838
34954 14692 -1716
32686 4278 10113
27971 14089 20901
19978 31877 -1161
2445 19445 13458
19906 18577 -1665
13282 27425 35775
25240 16160 21030
3770 26399 -324
20252 4331 -1064
13476 29765 -1696
24946 34443 -1132
8594 23818 -2410
3968 19229 34599
34848 21008 354
18218 25 -678
14407 15268 -610
33624 30655 -1697
7946 23946 25913
30516 32286 34871
33894 23305 -1072
24472 31285 7981
34622 34206 29305
6659 17417 -2746
26377 30971 -2184
20649 17571 -2101
4193 20996 16858
21664 9514 2801
30919 29084 -1514
29429 18718 16994
18467 21203 12148
546 36351 -1548
35448 7019 -1710
17241 35525 37388
5943 23005 8401
14784 13514 20680
10920 5323 31869
22176 14726 14717
34672 17668 -2378
34363 22980 -1583
12442 31855 32773
7890 13343 -1572
12469 35101 20799
9841 4364 23048
37172 12355 -964
1104 14133 -3005
11040 10157 -2734
24489 3046 -2836
6033 2156 22003
9150 664 15723
27700 34566 -1250
17674 84 202
35799 9166 -1388
33797 26794 14280
1528 17571 -2353
8319 5517 -3178
11826 3561 24043
5656 13586 30881
10830 21563 17051
15545 32388 -962
31565 9207 1464
1853 9269 -3695
28314 27019 34790
33943 24270 -2700
9908 22620 12613
35251 23398 -2140
23640 24591 15340
4743 395 -854
3529 168 -3401
8854 28039 -195
8417 17086 -378
26269 2367 29707
26728 4840 -1140
10215 33294 20729
1169 25578 -1732
23676 18310 -2242
31591 34537 -1130
14905 2417 -3129
13116 11356 17632
7087 23160 -202
28035 32587 14454
15236 579 7675
23841 27848 22124
37389 36813 15863
35457 15389 11601
11222 6320 1391
27249 2119 -966
4938 7866 -584
17550 16459 -1950
7885 13187 32029
27090 28990 12494
23987 14657 -3743
37355 22518 -2014
12681 2121 19137
36066 26834 2509
9108 15797 -13
26562 8412 -543
1135 1658 12666
33849 30382 -759
11833 11498 -1045
22895 14919 16150
12479 12350 22365
35243 24797 -2629
32018 32423 -1249
22924 1222 35321
13257 13053 31466
33622 13939 -3119
14092 12913 2008
23626 30205 -644
17588 23928 -1337
9890 16380 36105
34716 1436 34900
31084 23317 -7
21948 23991 -305
33272 36379 30042
12878 29412 -2586
23160 2508 -1169
4668 23552 -1068
11768 15796 -1262
6146 24934 10317
21875 16386 24183
37191 19286 15370
34374 35944 21131
28369 21320 234
7227 36759 -325
1714 36781 -2947
18859 19990 -1693
15931 27055 32964
37037 5716 -2801
9208 13648 10679
36542 36970 35051
1356 22867 -2215
14036 11778 6218
31844 30918 14254
21711 37001 -2086
32127 15646 -32
14174 16795 33440
1321 31095 -2344
22611 23194 32977
22714 20802 -90
36939 19065 -3067
26093 2017 -2950
35621 306 4003
33277 36461 -740
35032 11151 -3337
36976 13595 5919
9106 1296 -1559
26595 787 -1391
29671 15722 23180
9784 26149 29412
3017 22444 -2960
18155 9817 -718
18945 36505 33157
36065 12494 30710
4662 32857 -314
12702 8555 -1049
13543 22534 -2877
16224 9870 -738
7972 298 -1210
3957 28104 -328
34088 1377 6453
21834 29287 11048
14656 17365 34431
30640 36962 -1990
17836 23484 8172
23327 7248 30378
7323 19944 -116
25821 17562 20878
32574 11818 -294
20950 16619 -3015
26056 23818 -2548
9390 20939 -960
34474 16163 35228
18757 8912 10901
35464 25997 -145
21080 5289 23729
29462 17124 32728
1355 2705 -523
30468 2490 -1644
34480 27567 -2971
15608 5641 -238
8916 16096 20259
33823 28660 -620
13596 19399 17707
23903 18280 -297
7277 21904 -3704
33969 6169 17639
35909 32873 -3349
31835 20232 -2419
11123 19371 -1367
21546 17984 -3434
5315 35307 -68
855 10543 -2770
25039 9924 13467
26026 20731 -2117
25683 31835 -1739
4959 4529 27059
8078 3412 3643
15518 21503 17802
8785 29529 -2875
21597 14162 -3747
26857 14683 34468
91 30115 7789
13134 14062 5687
2103 30149 26624
18368 33511 18767
32582 25303 -348
29024 21589 -368
34314 23143 -1963
26274 3446 8482
9982 37087 26441
18706 35353 24659
5381 30861 21378
33864 3244 -1993
32547 2000 2810
19003 35491 28598
33546 27625 4319
333 29185 19162
70 36479 766
6793 25769 24094
18379 24854 23675
26458 13041 -2338
9159 1957 31404
2708 28021 -2062
8317 2740 -2742
3144 3728 -777
5029 18011 21300
32199 13716 8213
15934 5946 15564
5986 35229 -1189
13343 16769 2824
16332 8412 -2445
10121 21363 28511
18958 9890 -1851
12300 29650 -2789
6224 8322 8781
12381 13296 -696
33492 8787 29062
9504 33107 36273
26763 37252 -3534
37379 19551 -3148
4000 31999 -2445
22677 2726 32499
28387 35824 -170
17897 26466 -2235
18691 29821 32917
10844 29126 31358
28521 23896 -74
31424 17182 -1057
1598 19781 14268
15482 13131 30051
16661 2484 15057
31226 26419 -1734
34348 23881 -792
609 3973 -1697
11945 28381 17012
32302 28059 -3025
4626 34443 27380
2401 3470 10979
13442 34269 4311
12018 29159 -2094
3822 33577 -3308
12518 20933 18240
29170 35782 -2827
36340 9407 -2558
8075 27228 36212
13990 37484 25890
36037 34572 36531
10565 30705 -911
15931 12624 26619
3168 14429 27098
31612 25575 -3218
32969 24667 -1702
3438 17690 20977
32413 7483 23143
33751 24950 25599
21683 30203 -1145
3088 34474 30524
13087 9502 -580
11810 20124 -2565
30725 32042 28529
1432 26643 -1190
13362 6926 803
35142 5086 20599
7909 5393 -3564
26207 18236 27131
1186 8570 13707
35333 31719 13073
31935 15581 -901
25363 20127 24510
5081 8104 -1153
36916 570 -2016
15394 17536 9796
33882 22475 26236
23041 25064 12379
12681 17156 -2789
36107 23395 34029
25074 3453 -1301
16417 26297 20167
33972 32734 -575
18886 266 16059
27003 32750 13698
36881 18209 20712
22258 25684 29903
23068 36318 27537
16709 3226 1549
5952 8894 -2383
1467 22752 18189
29803 15983 20330
31265 33045 19356
21509 37046 32890
19810 26113 19186
34108 24479 -976
35349 5804 -3195
32400 32839 -497
179 17478 15179
12026 10738 -1389
973 10797 -1646
4042 7670 -1894
17362 14821 -2012
20417 16038 -503
3032 12886 -1832
24159 12233 -2778
10126 23958 -27
9785 32285 8599
17582 35210 -100
36106 16426 -3717
3288 26613 36289
35971 27813 -1646
34096 24300 4763
8394 36998 14064
27485 503 -3325
19658 31095 20061
14626 32273 19017
3136 26772 15573
24902 3887 -3485
23999 35290 -823
14624 5277 -169
32873 15533 -1406
28434 5432 -1925
11216 3172 17455
8874 24603 22494
23392 31829 -1734
14481 34394 7803
20472 28042 -2583
32365 23167 -1133
34657 8434 -3183
23895 217 25349
13940 31407 -931
34465 20833 -1607
29604 13464 -738
10376 24650 -1092
33911 26022 -1467
13132 5615 34234
6084 12259 30553
1504 10892 21880
23683 26167 -3425
24422 19915 2387
16471 22806 -3357
31647 10625 -2137
4477 29539 -1266
22454 21727 -2703
13274 20337 -2448
32032 27207 17781
4766 25563 -610
9770 32820 390
3838 9460 -219
24558 1847 -2911
28432 12731 18195
25422 10532 -3187
1608 26628 -180
30384 20325 -21
37404 35127 6500
20011 21900 -3094
19797 31884 -2081
30783 26473 18844
19011 69 22340
14753 23265 23042
17328 10230 -892
34850 36801 -378
11612 24793 32110
35391 8850 -2234
13995 26154 5286
3785 30259 -631
36816 13747 7478
30849 6939 14641
16921 10245 -3541
12600 30186 32126
6509 31866 12747
2145 24311 6447
14209 2816 -2259
23444 29383 -477
35937 36546 16270
14256 34262 -2079
31083 1350 19384
17448 26563 17591
3452 8470 6361
8391 26362 -1925
1115 26838 1233
22803 36143 -2066
11871 8867 -2690
307 33706 14500
28013 18453 -3504
22047 16259 -1793
17436 4164 31844
3599 9168 -2186
27101 23232 23709
32861 29936 -3730
13710 13634 -2063
22667 29880 -3222
29586 6136 -2375
36341 31598 25268
20937 36260 4839
23755 36798 26021
9945 30540 36737
16342 35935 9849
33022 15493 -2962
5347 18792 8407
4888 36885 -1963
11894 29354 -1702
3596 1087 4324
31274 10850 -1992
30459 31926 24015
8933 5821 30021
5754 27776 -719
7271 28886 8190
3237 21069 7615
23714 25409 -148
22848 31834 -955
10267 30282 13849
16567 26666 1279
32036 18185 -1203
19069 36442 6275
34829 29331 22422
32434 5323 -580
17711 20043 -2718
11088 21560 -2094
33726 13077 -173
7186 962 -2594
6418 35423 17341
24542 13824 -3326
5419 31764 23507
6880 20071 -81
31213 1971 -2161
33218 28972 22541
19779 8700 1643
14117 35925 25224
25634 25153 7133
7403 8826 29987
28935 4931 29816
5055 6339 20377
26044 6828 -113
31110 23499 31131
10674 6662 -803
5024 25305 -2786
22729 13004 31321
16766 34348 -243
30313 6265 29683
9912 32645 27108
35355 33504 13943
548 36903 -797
1121 35018 18235
32097 7887 -1606
4738 16938 -1653
35824 17598 -2351
30120 265 -2347
17575 30704 9168
27403 522 12933
32688 459 21761
18174 30441 35285
16181 24059 -2694
24643 17449 -2294
5622 36068 -1234
25066 27080 15002
14194 13196 17892
27438 7370 -706
14210 23095 -991
4697 9492 -1362
353 220 -768
22906 15591 -2190
9875 8682 -830
14014 29132 30607
2856 35244 37131
20488 24129 1353
20787 36775 -1484
4085 31765 -3546
17515 21844 -639
20126 17650 17864
4524 3258 -1694
694 15320 -2402
11177 10937 22065
9990 28885 29953
10751 20793 -1305
23590 5546 26667
20756 10453 -23
20024 26187 10877
7840 10948 -2290
3836 9992 -339
30482 19250 -2372
29548 16147 -396
290 8754 -708
21387 35078 -812
24182 31364 1642
14893 1850 13165
15697 524 -439
12843 16225 -3402
7778 6148 11392
31549 29882 -1825
10394 21753 -2533
11215 26874 -1561
24305 18847 10636
32343 17850 8412
17215 6145 -1298
25366 19464 -2835
34128 9775 23782
8515 24244 -2549
2923 2039 -2676
25821 13291 -3392
5199 25237 34767
5122 27562 26463
27582 3438 32109
29217 30512 33406
26765 23806 -1323
11872 31128 -864
35943 4626 -248
12757 16764 -2381
6996 19614 -1081
12946 9056 -172
33595 9428 -1241
30412 6086 25785
34909 1603 16878
17681 7714 -2815
7820 3229 5577
20567 27327 -1480
7633 13674 2298
12149 15240 -516
26293 28409 31186
30331 6900 18447
28189 18852 16144
21871 37039 -2435
23248 30671 25589
8898 3302 -3646
37451 9619 4283
37394 17667 -3049
22310 6066 27695
10570 4142 -3132
21176 5886 -3554
22543 20535 -977
15983 31504 9148
30532 31230 17078
28462 9802 -2972
9511 16666 11392
36100 1418 5623
15557 36659 6444
8503 22117 11075
34861 6600 -2319
30138 10136 -2852
33801 34920 -3536
1916 24553 -2801
9048 15362 7869
22988 1694 -576
32392 9673 34503
11797 584 -1335
22728 36423 21203
8236 25122 -3522
310 6414 -1229
4123 14175 9479
35976 30071 37282
24147 13525 3080
22354 15095 -2761
28230 28472 -2506
426 23095 -2245
32695 27711 -3403
25318 20710 -670
8679 33985 7633
21703 9084 18103
36704 1525 -3115
3937 8491 25395
21617 254 25233
4434 5532 5193
4722 28992 3026
13150 10887 9699
23051 34991 -1918
2342 34597 -2661
18904 12515 25947
6715 2201 -2
25293 33721 3641
32875 27464 -1202
25685 24586 7212
32032 9057 31498
12987 11006 18194
30072 11163 17411
21542 33278 -816
19990 15438 30551
28041 1389 -1319
19773 3868 22506
32110 18221 37231
7999 34160 32589
28217 33555 17376
3616 31112 -2498
37452 28047 -3130
283 2310 33957
35716 17717 27244
18813 25232 -843
24531 19932 -700
12195 16446 12077
31333 29757 -1697
22901 12970 -3466
1762 28768 -3427
26917 20327 -2036
33374 30430 15782
6441 20345 10801
220 34999 18009
7518 617 -1757
34273 9284 30414
32397 21144 -2168
32419 35942 -3307
32848 13674 23724
14628 6959 23209
36391 35940 -3335
36864 19418 18593
33264 13716 27168
27106 28477 -725
34938 14136 -14
19204 24676 24285
15535 16970 11719
1946 2562 -661
18325 23587 -2490
15765 2279 -2771
25065 15462 -1529
22102 20066 -1269
8972 25502 -2215
15582 20597 -887
8685 25947 -300
17856 37131 7445
26413 32561 -2788
16164 4018 35070
22165 16018 17588
1897 10177 -2208
21877 27524 2855
25561 9736 10018
15110 2858 -1757
29676 9454 -1031
8742 26600 20631
18770 28686 -2569
18355 36634 -1483
19584 27370 -1820
35331 30512 12107
34456 8978 30715
23455 13039 -213
3273 22654 -659
30392 21129 36699
36064 30158 19248
5919 10361 26326
1543 28570 19545
30823 28077 -242
15437 21986 6680
22539 36234 -1944
21611 32184 -122
24366 18968 18786
28273 1197 -1979
21898 24734 4268
2508 30727 15836
25749 8295 -2073
3297 27423 8953
13422 16136 -3607
14066 12239 16051
26917 20486 -2535
29264 26771 -2525
35458 7250 9130
36981 36674 -2071
18287 25802 14610
17220 10119 17956
34186 27881 19941
15113 36299 13108
26958 32577 4166
26411 2697 -189
9321 24422 8408
8432 26144 23582
29928 35513 24918
6631 6519 6490
33579 29220 10514
36367 14763 14971
11916 24242 2769
5240 31331 22200
13307 4591 11104
17821 17961 25460
542 19690 9140
27980 31510 -2486
12221 4443 -1609
37037 20923 4000
28819 18159 -3509
11669 10833 -372
2689 27690 25543
3782 22588 -1778
11803 33337 29498
33468 30106 17788
11280 59 -3402
2665 25099 -2907
3442 13113 22882
32232 30441 8331
24905 28811 -182
6700 14369 13537
24025 2275 -3362
25684 9064 -1205
9462 11238 -2611
34730 4716 -3544
8593 3414 -3731
22543 32208 -2762
21678 22262 -630
2389 18494 121
32493 6811 -1943
9422 10390 33001
32939 11187 32924
16063 12801 17288
11284 15487 23701
5808 285 19801
16039 4564 9080
35088 33769 -1866
25642 28799 -859
12763 4963 30713
22567 5238 4376
20685 34991 -3591
28875 29276 -582
23198 14088 -2322
14965 35323 7065
31797 23500 -73
23167 6423 24562
17665 32114 -2351
28947 25246 -3691
22674 489 33526
5639 34281 27300
23770 13308 4267
18891 17650 -247
30565 14442 -416
5022 22679 -1608
4958 32210 -3284
11113 5530 -3065
28133 2183 6905
35037 14606 8401
28600 25522 -2721
23254 4261 16311
16543 34143 16989
29092 22681 -678
12672 23618 2644
25242 12000 1693
30590 13659 -663
6761 524 28288
7184 29839 -709
12283 31060 -1419
31385 35877 33112
32119 25807 10034
21603 10415 14404
26130 9879 150
37152 27299 3547
12755 7148 -1048
9957 2162 -2791
10857 14896 37264
33674 30351 -1670
3230 17956 29115
36803 24105 7251
3205 37498 -2310
16663 21770 22487
22474 16307 2620
30016 33240 -1433
25804 33526 33799
16630 21149 10880
4075 5775 21457
23966 37333 -1801
33056 32909 -1179
27298 880 -1032
36431 8250 29763
9260 5487 -2555
7707 15882 10367
23520 17590 747
5918 2475 -345
34871 3938 -1299
5945 4694 18845
16373 17907 -3326
23364 17131 33561
14702 35776 -2437
28491 36938 896
17459 9102 -938
21912 30999 2310
9078 14565 36852
22639 31027 -3230
5317 16176 33312
21958 1594 33540
36264 18068 9035
15230 13088 -1326
11385 21901 -3175
3397 3564 2644
8537 4835 -2483
36258 19530 -184
18206 1887 -88
27196 7433 -2436
19107 31274 -1627
28695 26283 -719
11230 33694 -229
27829 33257 -945
22738 19404 23945
10202 22983 -136
13827 33520 -2824
34973 5768 27364
35268 587 -1536
29835 26740 24728
13012 8994 -1193
26292 20724 -203
12304 29304 -1136
16224 28919 7090
15763 13131 -1627
6138 6318 35028
26958 33774 -2319
36174 24551 -2441
34738 34047 -2764
7028 32544 22035
23119 14623 -855
28255 2031 18302
5505 14576 -2556
7319 285 13693
7124 89 -3316
17264 33821 -1804
1664 25127 -230
17132 9447 -843
6892 3602 -2805
5269 2771 10498
19486 29601 -2983
20101 23893 -1914
5091 4416 23070
37033 34601 35053
19852 25072 27883
1972 21453 -3367
22292 12190 -150
10449 17419 -3386
34423 31647 -955
8206 12676 -3452
14029 634 -2105
33816 25164 28730
10904 29231 16931
3914 7170 6499
17154 16065 31527
1876 17688 -1946
2720 35337 6293
13100 8955 -3324
9819 26185 -2122
18467 568 -2506
2498 10189 608
11633 11335 11715
20913 26724 17987
9873 19682 -2061
4426 2267 -3005
22238 18865 -1763
32554 9861 20007
33298 8631 -363
5675 24522 -1915
24224 27597 -2597
6543 27845 -140
29094 4163 24187
21467 23387 -1961
32944 3801 -1298
36549 24582 -3024
10543 20610 34730
2421 30637 5303
26150 5989 -3432
16074 33289 9856
25891 15397 -925
14411 21075 7999
18418 11035 18704
10844 10527 30001
2424 36000 -3371
26649 17297 5586
14557 28524 -2409
34156 37092 -1534
26577 22959 4275
35863 22419 35763
18337 6060 -3612
7129 22232 17374
14465 14285 -2001
36518 35342 12417
19574 12252 36566
8079 33877 -902
31515 26682 1694
29420 17519 20318
22991 18011 10913
27272 1320 30372
15328 29850 4366
23063 2730 -2356
32851 22022 -758
4452 17660 17192
3128 19637 7021
27196 27007 -2513
13043 10468 5489
27021 2480 -561
6619 35179 -1205
391 9644 -2552
36313 20777 24994
18382 5297 -682
20458 5132 -2808
4595 5726 -849
22327 18315 23826
31625 18506 -2232
23205 33457 17275
21466 32512 31807
10896 412 32272
21220 404 -1943
932 10136 33736
30321 11712 -209
37015 28966 -3013
10174 23518 3853
24992 5286 25763
6164 13390 -1860
13303 36331 28344
20371 1278 25620
34897 711 -878
19901 29640 17510
6294 28673 -2180
11831 17014 -3341
27931 32482 5157
7788 23179 -3243
750 1403 -40
262 3248 -965
22432 30397 -1555
4394 31917 -983
10403 13796 19176
18187 19930 33982
29612 37074 12310
34845 36029 855
2162 18519 19017
35110 14142 1574
31228 703 7216
18777 9433 21202
16562 35424 -627
15887 27409 30818
18306 15811 -2331
3993 4030 -2195
28233 29984 -2833
19579 22011 13082
9942 19922 -1307
23142 31518 -3207
21682 5713 6979
12017 28283 20110
34611 8755 -1338
16851 7851 -2993
33815 35172 -3638
34029 15222 -1375
5098 35481 6890
32426 14717 10674
774 34106 2548
2129 3587 20335
35522 30132 17518
10617 3797 -420
22886 4225 6256
18226 17402 -1849
17990 35462 28966
14628 27643 8733
4534 1372 -1279
18887 8805 32468
21208 35741 -2099
428 31840 -2432
21779 5355 4328
20713 30160 6824
24899 2591 24919
1372 10987 -2269
13995 5502 -1915
26604 1124 12648
14187 19706 9076
8880 14700 23970
24022 977 -2356
23857 20922 -1498
33264 11258 -2977
25897 9482 30132
7468 27260 -2714
23007 25140 5989
14580 22513 -3499
902 2064 16565
33439 16995 -3279
10213 37440 -3698
26021 27611 -1094
33998 33842 -1050
33309 12075 -790
19269 25900 -3749
3995 32826 -41
22819 26185 -2187
5862 3735 -2681
36043 16899 -822
2441 22297 -2474
1800 672 -2442
25858 20976 -1565
6150 14628 16804
7384 34081 32749
12915 18383 -1659
5673 7756 9631
23745 25271 5108
18236 32816 -2601
30854 402 -3429
3090 16442 -452
24134 25880 -716
388 3170 32451
32179 31079 -1259
36490 33004 35778
34626 12103 7370
36200 26358 30437
3452 30023 -208
877 31664 5057
5090 20609 -508
27217 13992 25625
3768 18524 20565
35223 22287 25560
30110 25208 -3309
13239 31420 4964
19941 29631 5185
9670 18449 -1850
11272 9500 35494
23207 4294 27776
20278 19095 -1879
24625 25472 8447
13860 20801 -2300
25741 413 2356
16796 8604 2751
22578 11051 12301
19040 6253 34874
13060 6347 8339
16463 21477 25698
19437 37465 28311
15053 5728 -3638
15966 5044 -3651
4039 26315 5594
9122 13883 3651
21376 13426 -954
30373 10764 4424
2909 29387 -368
12115 18847 -749
527 19135 -1606
37414 30160 21710
10634 29124 20471
26119 17754 -3598
15485 30111 24432
26571 18488 3942
20568 2496 -342
34725 17594 -1830
21214 8788 -645
7010 33923 18096
17683 2131 12043
36550 25159 28817
3517 1016 -351
35203 30223 -231
36404 4107 -2991
6992 36139 -2850
18611 9542 17472
21075 34365 28093
17744 12317 -1147
27246 25889 -538
17328 22585 9607
36374 17489 34546
10662 2030 19731
28609 8617 -1705
12674 16992 19121
469 25408 17680
17709 10937 25903
4429 22840 -3352
5766 33026 -1604
24239 20330 -2424
23404 1643 10917
32797 21030 7489
16445 12418 8977
24196 12470 623
17050 13086 -3428
22075 36640 -1403
25094 31753 -211
682 19944 24081
23466 16606 -604
2936 11444 18595
26803 23913 -1124
28309 15355 -361
27584 22081 24631
27213 3774 -199
31059 534 3530
23775 18891 21578
25387 16584 -2269
4690 4364 -48
24441 14717 31440
2454 7212 -1210
26875 27500 13538
35907 10191 13450
28585 29651 -2517
25819 10932 4350
16345 1096 -2121
22974 29133 27307
11638 70 -268
3032 10356 21593
20386 19291 29033
6146 4952 30662
11122 7443 9828
12744 30965 18346
15302 24887 -2933
16097 27379 -1120
28357 23594 -2068
10288 37066 5730
2224 36651 -537
12403 22257 -2716
11771 5042 13310
29017 16300 22731
1923 25676 2072
1592 10909 37472
7623 32252 -656
34476 34357 -2884
15936 4244 238
23587 30305 5295
34504 10270 24404
28241 24257 6828
12617 22840 24906
21765 24877 -1476
36510 13014 -3507
10866 34046 -787
33718 8349 17571
11591 740 3081
32336 18049 -822
32748 31741 -110
7903 28018 -1076
32527 26403 17193
1439 32562 30510
1600 12480 10915
27344 20831 14380
34218 33566 -2706
1320 3650 12997
20026 22052 -2711
3861 1346 23258
367 3226 -3388
34535 20424 -1815
20792 16293 -1583
35397 25823 -1238
5737 15042 24085
21193 37456 10346
22347 5077 -3527
7665 21488 20930
8394 5604 -1546
34647 17353 16511
7945 11631 17052
770 16615 27647
10076 14751 36198
20215 9765 24859
36111 10024 -1944
16579 19763 -1013
1189 18957 6073
9206 4864 26185
13757 7221 -3509
7319 17383 35465
24375 33425 4755
4397 21969 -1933
23383 3795 33726
23166 25210 8714
16797 18299 -1604
1547 11057 21569
387 33013 34985
20623 12788 -3528
6916 19730 36748
34029 19288 -2541
31585 27661 -1133
23524 15625 33291
27227 12334 33991
32167 20305 -3503
23582 14544 -1630
10894 8759 14947
7613 16295 -2168
34232 3896 -1681
6552 37061 25025
13415 12484 -1985
26017 12322 -3349
37465 5410 35286
36970 24022 14855
10865 30289 11197
13472 35533 14615
37376 3943 15380
13263 25914 -2676
31620 35000 -3350
23928 37111 1861
1223 30257 2146
5110 18096 14497
20418 30053 17136
28657 27775 31916
22904 29435 -2242
12968 6769 -2380
29071 13967 -927
29319 16723 -2427
23962 9416 15302
5701 23233 33883
23466 2921 -760
27605 4030 -2896
4148 6912 35369
31702 13903 -1996
31538 26877 29586
11665 26552 27405
26790 13572 -2353
25192 1992 29590
10521 14951 324
30004 9218 -99
26364 29004 3246
23133 33117 -1745
21353 32346 17778
19858 6030 -3656
26137 29859 3437
24985 24639 8484
21608 21654 11558
32208 27792 -1537
10385 24547 -421
14518 30028 -1170
22864 16459 -1043
36388 2055 -1751
31451 8841 -1941
21630 12653 -3443
15398 28567 -1066
19577 812 -1012
6928 10984 -903
23632 37392 11434
23249 28063 17660
713 26160 6938
19176 25890 29967
35845 20349 24570
15809 22097 22493
32959 27367 -390
21191 29910 -1049
6087 36752 -3633
16988 25575 -2336
10640 27320 -44
30527 21570 15104
5783 27795 15627
20194 25010 -928
22776 24132 763
15763 5743 28501
21878 11385 30947
18850 3875 -3025
1222 32226 34700
33671 35437 3646
9362 20582 -2704
4966 2407 -2232
2025 28542 -3396
25447 18276 14055
37381 26825 -760
30236 13054 503
32863 18974 -405
23856 24404 -195
33669 25283 15098
10162 9515 -2473
871 36950 32916
27259 7367 -1130
28789 31735 25506
19467 19333 -1826
29697 1787 7323
22123 25016 -1206
13215 11329 -2897
20344 21715 -3328
11252 22485 -1359
27271 36699 -3192
32153 3435 5291
35452 2615 -3012
1692 25360 17003
8996 29659 2051
18578 32405 10241
9321 19183 33278
1310 5614 15267
26650 6704 31626
12647 29672 -1655
30759 209 23772
33911 18539 15472
6495 2172 34348
6277 3217 27484
31498 12446 9409
21104 14313 -3111
25875 24844 -3325
8423 26240 -1759
18139 8241 19043
9539 1426 32651
10104 17458 20555
10020 35716 16230
10214 34252 -2041
13703 36806 21341
35693 14703 -2246
22839 3842 2094
6836 26737 -1350
35345 30770 19772
2856 12545 6275
32920 22046 25719
605 37159 -292
30598 5610 -3309
2207 12729 22790
11472 30211 19132
35334 25084 -2489
35422 29702 -2078
11608 25884 0
13243 34728 -1219
34098 35384 5993
33215 28978 -1960
4148 12816 29286
11790 25002 -2887
1265 9997 12967
28260 1234 -166
6588 4427 16396
8180 5889 261
6772 25381 -3307
26770 17519 -3448
10116 24013 -1356
15643 10988 -3658
22475 3456 5429
19472 29624 -2073
33889 7417 23216
5682 6206 34304
29031 28676 33500
12286 16112 18724
19880 26654 34224
14683 755 -113
8431 16399 -3029
28128 20784 19452
4149 12861 -2697
7742 9766 6684
11137 20930 -815
33011 11963 8394
23066 28861 17004
33486 13839 27794
9824 12617 -2423
17375 37096 14622
4444 35511 -1846
22002 18713 33659
32858 35988 -2866
31649 15687 32075
25363 27050 -1762
15094 23076 -1587
10527 31970 30896
37240 31089 -279
13184 617 -1105
1211 13827 -2534
35875 3300 22295
28063 33178 19365
32630 5834 307
17994 23059 2459
35279 18207 -2339
7942 26490 6392
36516 19988 -1507
20995 20770 10749
31457 35371 14571
18554 13345 37051
9620 26112 31812
22339 10637 26327
21784 9280 -365
12346 13846 -45
12518 15365 -2224
16915 8238 -504
26842 4478 34622
30202 357 245
6636 20215 20560
5482 23786 -1477
25820 23922 -1111
32000 33823 -90
33296 20907 -193
18184 33454 -2398
5284 33473 -2572
26180 6392 30090
14169 32182 -436
16457 37209 9012
29342 9232 36750
25002 25730 16370
10681 26845 -305
31912 22708 -3430
34751 5359 1388
13674 24252 19923
26232 23906 11256
8952 33445 -3578
13386 16923 -2696
32474 29558 10408
24277 12384 -261
18955 35609 -169
15570 2674 2188
5645 16149 19493
21298 26804 -129
17180 25021 -2737
6761 3880 -869
20838 33157 -2754
31596 28126 -633
8443 30851 -2247
21481 36065 -1954
19277 15511 11475
31424 32333 36578
1684 35231 16492
27568 706 6786
13745 7991 18217
2516 14331 -1749
15178 15928 37086
32754 13169 13092
6671 16122 18249
35516 19478 23325
29082 28703 -1014
35037 32195 58
30547 34658 27702
15704 33191 -3070
33101 1282 -1492
17588 19407 -2133
23438 25475 -3737
2356 8818 -2041
21514 33238 24365
20747 19385 -417
25627 26863 24739
20357 24963 -3369
22349 34798 -753
18433 20671 7727
24625 36703 4455
27003 16264 7482
30620 32519 -2
23772 21254 11998
11089 26476 -203
27456 10814 8849
37112 29295 -3118
34971 32457 4357
17012 15829 -870
23626 4682 -1063
35747 10872 -1069
25901 23608 -2291
19163 21177 1000
8682 5670 37127
9001 36268 -2907
9109 5928 -3321
13702 9922 18285
6423 12482 -618
16470 2674 6721
27880 36882 -232
7214 6115 14641
13033 23356 29299
4207 19935 21225
7481 6646 33538
37308 29102 24856
21662 37042 -177
7636 31706 36984
7012 3621 -2486
16811 21813 5245
33528 11682 34781
19073 2290 -834
33491 36778 -1541
2561 13853 11123
35145 14573 -353
11423 15939 -1308
7252 28864 -461
32625 6838 -3163
18294 8868 7212
13508 5600 -2437
25936 12812 -1546
12420 31486 -3429
23910 22232 -524
4807 10071 6985
8724 18997 -3563
31744 21160 12504
6853 11577 -1167
2670 24926 -3346
29965 21125 -2110
21902 20470 16716
9448 24690 21869
10920 8423 -3273
8365 13591 -1534
18382 3000 -69
29935 536 37106
14985 25114 -561
32919 6956 3870
35179 26241 35124
5347 28807 -2383
26239 16278 -785
9444 2841 8164
1482 4635 -2921
28750 10847 26771
33712 4189 13447
4033 33782 -1152
22063 30453 12623
13905 1171 -3318
22112 16251 13266
30851 27240 -2078
33975 30221 24530
16245 16860 20623
4266 1341 15099
23346 4499 550
29440 19772 -2865
17930 37076 -1320
2499 12836 -3618
13193 25987 -1503
8257 15863 20324
24500 3731 31020
11216 13003 -3375
149 16469 8672
33145 37192 29131
7010 9654 -475
33654 19365 -49
20980 26148 24008
27429 17576 26475
37452 24830 -3046
34326 9601 30312
34588 24554 -3457
17226 8601 9582
8142 18594 -2441
11062 4409 -3018
13343 32144 28423
4812 9146 -356
22385 33543 6068
5095 15677 6303
18137 13650 -1198
31035 20809 575
15339 31410 -1739
14382 31836 -2323
29019 19780 36260
23855 6598 30654
18124 1313 9348
33672 15463 -950
12123 32699 30679
35817 370 -1531
35139 2785 -332
30296 30848 -781
1360 37430 -1622
11419 25385 31634
22179 21617 2267
15019 35800 -2901
27856 18906 -511
2662 12699 17780
22650 8919 -3067
19112 24671 29520
36905 17584 -1706
13729 34178 25748
23447 8187 -126
33267 7320 -1514
13778 17334 -1040
26729 31902 -1770
1638 37126 -3695
2458 9278 -3026
9340 1812 20681
35668 11918 -2663
7108 17449 4956
30838 10031 5241
20060 35020 -841
6828 34748 -2866
3467 11642 308
35153 8357 12305
3830 30740 9774
17160 12737 6867
9395 33736 23598
23038 5611 4564
9709 7663 24586
31122 30549 -2383
30298 28530 4984
28531 9397 9943
32497 22837 -1273
708 24114 -2615
36707 2765 24891
19157 19900 25764
25318 37370 28236
10351 27003 16980
32236 24786 -3451
32306 17362 18325
36706 10703 -1286
7956 12362 -1230
9204 12620 -880
13865 9980 -3733
12420 29614 -448
1749 28995 34346
7819 8644 -2360
28424 20763 -1594
8617 4896 26562
14460 29723 33174
15404 7244 10824
25778 33778 10852
36656 7752 -2636
2599 23571 16998
12353 1761 5220
25456 1584 22644
22235 33395 -1777
17889 2191 21114
19812 22494 -1903
17342 20298 26393
3538 35623 -3594
26518 36631 26031
15587 1962 -3128
27148 12340 -2952
28948 21856 -2097
20539 28979 -1103
20223 23879 -3570
25843 33354 -592
35717 12213 -638
21383 22566 -3432
29200 7028 -2330
3762 22459 35182
25738 34175 -1106
302 34813 -3624
12792 21619 -926
11101 22485 -250
26035 2338 17298
24482 19339 20892
7617 36436 -1473
32053 17472 4689
15023 22736 -2141
2510 12488 19297
35339 31583 36280
2067 20799 26980
21762 15126 25710
18583 32984 3409
35598 1543 -236
17893 27591 -605
9675 37495 -2745
34062 10412 -2684
16523 7169 34183
23764 19766 -254
5139 22923 11444
2329 34620 -1989
2507 11104 -553
6218 35110 -1604
33188 2218 32616
1118 23541 7558
14964 17763 -2478
25492 2001 8375
13299 25764 -1557
9772 28884 1986
5402 8152 11166
249 16353 12980
30128 32907 27709
19380 29431 -2425
34229 12429 -2298
31288 31847 27725
14469 17016 -2842
1018 16218 18760
8237 25422 -3498
7583 3492 -1254
11315 824 -3108
3496 3558 -3569
15330 6022 -331
210 7539 8235
23461 6778 -2118
2880 14930 11784
1616 20779 34520
29529 19256 -425
35635 1401 -733
17186 18036 -1307
1123 20109 32374
31898 35605 4726
35379 16508 18038
3400 7012 -1801
12573 2590 -1376
24779 9954 -2485
13354 35797 -1621
24547 33317 -1342
31212 946 -2640
26267 18082 10292
34882 35908 -2470
17518 24255 24000
13050 10887 -3294
8963 15276 -1400
18274 5689 -3714
18073 2454 -1413
31552 11312 -1897
2602 19393 27242
13008 15778 -2706
4675 603 14619
20182 17818 -1987
21353 31279 -2598
14399 4433 -979
33597 33584 -2178
36282 7992 6905
22543 26910 11856
14006 9818 -1490
34409 17736 -2680
14663 2432 7518
7929 18182 29352
24145 4000 16686
15856 19635 -2287
5513 995 -786
10949 11884 13313
12833 10793 -3350
4931 6091 34991
17947 26305 22603
28913 22939 -1276
18294 29559 34396
28278 37011 -3542
12645 3947 -572
24511 31381 -635
8387 15860 36596
34567 6073 36819
36768 29152 23153
29304 15879 -2745
10164 28356 -1993
30562 20778 -3618
4271 33950 -2171
649 5593 -2261
22292 3046 -2117
27926 11387 13123
24020 2961 21720
4041 930 -1370
27786 30872 4922
2274 22122 -1978
13324 18049 6557
32361 29793 18327
20291 3569 35238
14448 11801 4448
34412 4372 4813
26531 18261 -1947
28425 3587 -838
8075 14395 -2923
5035 19580 -2979
19056 9177 -2861
12793 29413 22976
36802 6015 -2706
29184 4704 13672
27136 2733 702
35818 18776 -3629
25078 35610 29473
37069 16068 8106
26423 35135 -1825
32775 22429 -300
2538 1741 -147
31643 15243 -434
29144 12868 -1498
5503 16205 -3467
29390 5696 13883
30873 14988 10104
16841 28310 9857
29344 24303 -493
30085 20955 25667
16353 9038 15857
35386 34106 20367
32264 31796 804
6227 35703 -2673
11001 2594 23210
1505 17210 18170
15996 22414 -47
23713 23322 -1613
20987 31459 27853
15138 36334 1363
25298 1064 31818
331 9744 20072
36714 36649 25149
475 34389 17114
30863 36599 -3248
1347 15681 -915
31893 31829 -2503
13212 24898 -575
13983 14500 3720
12403 29631 29684
18727 11781 -1471
9729 24834 -2026
4224 5834 29288
33236 10068 22142
32088 31388 -828
12071 17800 -2422
12736 27879 -467
11384 27580 -2845
4833 17849 -3652
34657 30181 -772
33444 23359 35446
26184 28460 -3695
32480 9931 -2633
35350 1353 25009
37244 4461 -1455
24158 33307 8842
35995 2224 8929
26201 21907 -1826
34162 33755 9452
6536 2344 -1078
22773 24051 -1046
23603 24135 -961
30868 4779 31070
1257 35598 24482
16815 33461 -1960
15551 34618 17755
30089 31295 29605
8576 14897 22778
24028 21525 16931
19039 13071 6810
16680 7891 29172
29782 16951 -3382
20804 17771 -1895
16859 32282 34370
10860 28043 -4
13918 10786 22028
2449 7018 1095
25668 29137 24071
28202 18812 1192
31659 6603 3899
532 1662 -1268
31905 11603 -1061
7495 28939 32727
36735 32939 -2459
20865 13516 15606
31933 16980 36059
36306 29645 17455
5305 8598 29161
37201 21846 -217
19297 10218 6032
14193 12206 -2595
31450 1090 1783
27521 22830 -2385
15514 18548 23491
23050 20805 35474
34202 28225 31614
6048 21755 4931
4131 25794 33317
13868 2571 24491
28261 4031 19962
24866 4791 21500
19117 23011 -145
16145 22207 -3602
3816 31621 -3165
33428 11897 -1211
24241 2285 -43
21367 37348 22446
35977 28243 2906
7266 10800 -2829
2816 19636 -374
21108 34387 -2865
1628 3036 -1188
34193 8796 -630
31881 35756 -2737
19458 18850 26703
36876 36411 -2230
36788 15109 -1735
4733 7033 13213
14452 5859 10845
536 3749 -1176
32844 33796 21579
34813 12454 -1035
11689 3040 20060
14940 27200 11467
21105 27001 -1357
29532 4496 23078
10434 10731 -397
25562 31368 17054
9962 26136 17524
29423 23000 -616
11127 3745 29822
34551 10656 -3419
23663 30411 -1379
26755 6109 -2189
4277 20616 29234
13406 16819 -3350
7671 18193 10760
30126 36190 -522
34871 37205 -2677
23713 9353 -2712
2047 29476 35809
4459 23208 21842
21872 25042 -2718
24125 25140 -2381
1782 14642 -3648
18620 26816 -1559
12640 18420 17772
17239 34708 25539
18704 15777 -667
16779 4051 27443
9133 26242 36149
24573 6368 -851
5857 28673 -2753
4791 1093 26780
33317 3716 35187
29343 1673 23111
21932 23162 -28
27088 31674 2360
13139 16035 -2944
33772 1843 -2550
13995 12641 11394
3857 17699 22967
16848 15604 -1349
25467 21965 31730
1873 18712 6561
11016 15327 -3312
29970 21802 -255
8771 27634 33334
25294 20812 34480
12238 28417 36304
13253 17589 23753
2894 27137 -773
10376 33240 8890
15516 13606 -1006
27564 36 -715
1970 24995 -1545
24732 15290 10727
20179 11674 31507
26810 33179 26076
33369 37286 34589
25945 9632 -109
35213 36181 -1182
21069 18918 3650
1951 3721 17288
13627 14491 -2496
32056 2377 -1664
13870 6659 4033
7537 8700 -954
32681 32451 17236
1853 9813 27359
14619 14052 11677
2631 13628 18974
6950 9564 18153
4006 33419 -2076
5347 31442 -3316
28914 13038 8114
36955 845 3597
2886 16341 -435
28416 33541 -1638
36186 10903 -74
26259 31242 -3275
17815 20084 26586
25678 21569 -2487
25440 27839 17984
24900 35610 -1625
6091 5290 -1569
36856 21861 -59
23728 21875 36543
31960 7590 25975
35142 17872 5781
3858 11234 24992
14468 8831 -215
20678 22270 -1320
2151 32636 -3718
4116 2554 1780
6434 1642 -122
29949 32714 -1536
17325 15228 27484
13247 4462 2234
17639 28332 -3087
20759 27959 -1655
615 8286 17552
10111 37176 -148
19488 3321 31451
9456 11332 24726
31617 34413 2635
10041 879 12965
30734 13817 634
1554 6383 -2891
16137 4805 23246
78 34725 -605
33711 5701 -2292
8826 13612 -2225
16677 19869 -2953
3303 28047 3744
13361 14462 -1829
3737 10122 29577
17364 15847 -1852
33220 8041 -1760
4602 11723 12656
31382 8465 34654
24334 5379 20875
36137 14566 -1951
22414 3019 24765
4236 443 -2909
9541 20193 -1687
29464 8555 28241
13052 28913 25922
23849 17282 -592
24209 17973 -2399
26307 10952 -1537
4445 15646 -205
7046 5052 36361
9904 25562 2388
14992 4223 -3599
24157 33798 22704
32331 22831 -1060
247 416 14934
12391 12450 13676
34494 10017 32668
15510 22728 -3639
37228 29638 -3602
63 32998 10118
6350 36586 -242
9114 6834 31702
22461 1737 25431
8536 15680 8448
23422 29683 -1960
32397 34299 -2815
10156 21656 4339
31060 2165 5102
15712 12782 -892
21867 27229 -1866
8139 36994 19957
22415 3800 161
9777 15246 -1559
1232 19127 -2194
7221 29311 -3524
13076 34166 6348
17924 19375 26164
32152 4654 2127
23546 35870 -3070
12337 21489 -1431
33518 30302 28427
32029 9452 4897
35568 17240 -2547
7644 26507 -3394
20052 26073 26569
12525 5163 -406
7870 10015 8372
9100 33923 -3492
24531 21955 36207
30109 6089 -2696
4780 36359 4932
29060 16179 -445
2449 13121 18343
27840 15471 -1598
797 19525 -2668
30487 20551 27087
2005 14531 28837
18340 31924 -159
19704 25811 16696
12141 35329 19456
24389 7087 24871
22658 735 24228
21395 26145 -1812
31179 18160 7178
34110 2896 -2614
5471 31233 -1480
2356 2221 -85
10932 6813 -603
26636 10384 4116
15797 30172 -913
1322 25329 -3142
203 1640 31617
2449 8373 4084
36012 11855 -1665
17757 1002 -2477
31105 34200 -1478
25495 10465 -2476
1730 26190 10287
30520 1448 4661
17684 30345 -2247
11662 23131 -1146
5404 15671 36871
17014 34149 36810
28329 30261 -385
22977 25974 -1634
32511 6729 -9
9477 21400 16357
23592 19919 -120
20207 3295 15066
35787 35035 -2658
20035 33981 7816
9390 6641 36230
4351 2940 -3551
31819 27330 -2803
29860 24960 23151
34715 27840 -1715
14840 18483 -3405
30580 35111 11407
1441 36126 -1405
34003 35780 30758
9314 11652 16223
32566 8509 -3002
13320 5672 -2143
28855 36952 25886
3067 9298 -1008
30134 32695 -2382
19963 2267 25095
32654 34490 -89
14320 34672 -594
11245 15369 25641
21129 2830 2920
25735 14281 31809
3337 30732 17973
399 6318 -1257
29608 24617 5348
26552 9531 -1245
12543 12899 -1288
4606 3386 14395
20647 7668 19879
29769 20452 -2377
37108 25140 -2600
1415 15897 -3682
21966 5349 13632
16223 9715 11375
14555 18343 -968
9122 37447 -2806
14496 23466 -2608
32549 7373 -100
20325 20097 -1873
35847 3216 -962
26188 14792 -509
2014 15007 27176
34372 12995 22893
22568 33160 3512
11480 36160 32443
25789 21728 -619
27079 20018 -3405
26199 10912 26017
3795 13404 3704
20265 21727 -1067
24835 28076 6077
16907 21173 21049
23050 4666 11196
31278 33504 27623
30033 27674 -2514
20184 17481 5913
12676 35440 -272
13993 22417 5743
20882 1120 -2550
19439 3846 -480
35417 23996 -3502
23447 2571 -754
6305 13368 -1153
903 14529 -2042
26701 18137 5251
16681 15 -3317
32465 3158 -1808
1633 19745 27986
4535 23479 21759
10344 31731 -2561
32530 6303 -1412
27745 9557 -1623
19280 19067 -1129
6868 23575 -3250
16936 17293 10777
26660 36110 22263
8722 30381 -2445
15903 21037 -953
25221 18110 -1868
19489 412 29747
19746 8695 -781
26900 31423 27361
32796 12291 -271
8017 30985 -1291
34223 22030 -2955
1311 19106 -2880
35388 1248 36150
33775 10683 16425
33443 16206 -1401
10302 7340 -3400
241 5465 -2894
15690 15063 16285
18498 1679 23147
35770 30357 -1227
3287 17310 -15
25747 36694 26509
10048 29318 29464
36923 21918 17265
22320 19457 -920
381 9319 1904
3836 20374 37112
6903 31202 23916
21552 4082 -3210
6207 20739 35757
35391 32611 13499
8983 23233 -2251
30586 11637 -1128
12951 10370 -2676
940 20029 16591
33864 31132 13730
36201 22769 -706
21248 11590 -373
29005 28332 33828
22956 14438 -1160
30914 29783 18261
35641 11883 23960
8744 9985 4087
17035 23133 15399
15689 9141 2125
11303 11012 15488
11879 31954 -934
29657 829 -116
33012 21683 -2795
8955 7012 11132
10993 6907 -2975
12682 23758 2556
9672 3801 -165
29785 5740 830
8785 35936 -2873
4484 33604 2206
13528 20184 -2178
32000 5287 -2674
14143 21082 -1418
34292 15095 15230
8530 16972 29657
17823 35285 30531
9071 25356 -3225
16957 15586 2737
298 11797 -2720
3809 26682 21322
1684 410 9974
31403 7219 -305
17481 16500 5082
24619 21895 -1991
9949 26526 -1437
20489 14581 -2543
29065 34597 31737
2992 9004 -3580
26688 10914 18467
12310 16807 -2679
25838 35081 -2781
17058 33784 11273
17917 15234 13778
23502 29290 108
6707 22785 30900
23960 5225 -3003
1261 28817 -2257
22540 27917 -3690
32197 37260 6585
28957 28211 30844
16734 20994 -2910
23188 15246 -3011
224 26930 37046
36683 25587 5100
145 5060 -3216
17856 17130 8974
14188 2298 33027
23374 27520 -2294
34513 22032 4419
9173 24353 32783
19620 20560 30113
23666 25224 14129
1346 16478 13839
15429 8873 -725
15346 14693 16669
19195 31747 28726
20048 6518 -2197
26275 10040 12668
20346 21251 10246
33245 9989 21172
36482 21925 16479
9114 383 18808
1491 37206 -2611
18448 19144 6044
15015 30983 20206
12282 3569 11762
28818 6381 699
17281 5253 -3076
37095 5207 22332
16387 9453 -2754
6463 23939 -972
11038 18764 12241
28029 16174 -380
5032 21667 -2367
33962 28999 5148
22724 1248 18897
4319 27988 25956
10231 12850 3819
30229 11560 20971
18705 3791 -1794
10881 2071 -1618
9190 552 9990
14844 30671 -2959
36326 24185 9383
14458 21163 -1401
25741 4023 -1901
14078 13077 -2611
36834 29146 -603
37275 9408 -1340
6154 23310 18387
26285 2525 6925
36208 19012 6741
36023 30496 33123
29734 24272 14548
32965 15082 -2556
194 10455 -3634
21419 1347 18968
11642 23535 -436
26342 4763 -180
31107 35934 -1302
24173 22718 13105
34239 1296 9201
20957 15619 11023
36325 36104 -1997
10622 25977 -3545
3173 6347 -2261
12348 19698 12717
27739 12065 12931
13265 23609 -3341
7156 19153 29921
3609 26184 -3149
20337 36303 23871
37154 9888 -1604
13428 32022 -3376
1752 11868 -2925
5784 27784 11721
4169 22586 -3683
25862 34303 14521
5594 19631 -415
12113 28151 -2809
26578 19428 -3377
18033 33446 5577
12168 120 31012
27100 23760 -1057
28544 12812 3200
23370 11359 -3429
6592 9514 4632
15249 14539 27236
21036 14295 10649
20790 28976 -1856
21459 4162 33413
8023 8229 -756
17972 7125 10807
9294 20582 -803
16856 35302 -333
4243 14630 -3232
9427 25345 6659
9651 28972 -1289
32309 34153 -157
13983 7403 -1637
5799 25156 -2618
16903 19884 -2885
30241 32378 -2104
8793 25271 -2602
34046 14273 -560
20362 3812 21906
25198 11540 -3328
19020 24121 23239
16052 13192 20779
18975 22534 22168
34404 24675 -2219
4497 12180 30559
31865 35795 -2960
31287 31857 -1756
18077 12680 8876
16805 24702 7409
8103 19623 33472
21494 10889 -605
5352 27244 30204
19513 10124 28877
15371 7483 -3427
12624 5157 -1768
14281 19761 10112
2262 9123 10824
18333 20857 -2316
9771 4192 19137
16238 36849 -2373
5187 3329 -3632
25630 1540 -1437
20020 19156 -27
23615 16611 17792
32963 27986 -2711
8327 32097 31193
33348 19735 -2278
35446 27730 -782
4696 18945 -3484
25679 31946 12590
7125 35011 24466
18217 30249 12572
37329 1992 -2840
928 10447 -1456
31847 9945 16572
24339 25461 20840
26119 3432 14986
22216 25024 -3563
26447 2993 -2370
19488 25416 -1944
14470 7464 15861
29156 13117 21679
19792 23887 28370
13134 11979 -3094
29185 6807 3244
33470 15485 -392
18789 2103 36911
5658 26534 667
893 3505 -2859
19058 3502 -775
32556 26333 -759
28382 21613 -365
24770 6835 34976
7573 6213 -1824
12747 24257 14254
2507 29835 20377
3058 35623 17522
22708 16370 12981
26600 28465 -3533
16624 29831 -2795
18527 34191 -1102
23332 32752 35770
12015 30470 6906
5761 28469 26772
6602 22755 37123
36387 33604 -3155
11829 2020 13062
4168 32897 -197
10844 16272 33972
28453 23855 -1843
24776 22398 15840
13162 1401 -2326
2417 31979 -3412
28047 13981 8906
25229 26804 12750
22241 33220 7380
9191 28084 -3055
31534 27282 36017
13376 6517 -3044
35167 25463 385
5093 22669 -769
36905 17387 31000
11883 9150 13439
29056 32021 17192
30592 6614 32290
30295 19834 -3344
32871 4041 -1662
35048 13102 30788
15516 12841 -468
27283 12735 4103
13401 3843 -2605
7792 26880 -1040
33031 26839 -1065
17430 22045 -2303
31387 3074 -2569
16648 6598 -3174
33937 19628 -886
21081 26864 14645
31623 14411 -1648
32305 28427 1287
32574 10305 27788
35645 15932 -3692
33400 28697 707
12037 15331 -3492
23093 31149 -1892
15291 4273 5209
12749 19531 17489
7426 14144 32558
16800 33099 3186
35221 12328 10605
30212 24775 5115
27697 28011 -2969
31498 22295 8010
11488 18881 32944
10754 6993 -2643
7583 7714 -13
5874 2696 8408
7735 27190 23209
18951 17088 -2248
10763 37097 -2115
36818 29604 3827
18655 4982 18267
27060 265 -3605
34301 10798 -3602
9077 26342 -2329
1078 11213 13190
15044 6343 20015
33372 34808 23409
26621 11080 -245
19794 937 -3376
1212 29923 -3418
1881 22026 28330
13873 36772 -336
5267 18112 17613
18915 11427 17111
13304 28394 -3265
34756 15340 -3628
11879 17731 -3704
4870 32273 35698
16866 4035 33118
10558 24805 -1884
21341 22363 30890
845 31758 27828
26808 33852 -698
23585 17551 18018
37097 17830 -1632
7552 18030 23919
20510 22306 -1946
21979 19161 25476
1059 35053 -357
34215 35037 21436
18272 16274 20662
21587 19038 -560
17615 1213 -171
3873 27121 32879
20571 20865 24537
6639 37331 31349
14301 5901 -2373
10251 6196 -522
19646 28971 -2656
3186 32434 -839
12077 17999 12210
30600 3920 25972
18181 13544 143
10236 24331 18273
9332 29291 -252
7811 22002 4644
9565 36905 11567
36870 35837 -2978
11343 17001 5071
21950 21829 -919
33813 3020 36951
28576 10518 -2323
35676 31802 10858
14685 28076 9364
35587 22349 2589
22720 6620 -2444
29484 21956 4865
30960 32629 -3412
32391 26464 -1649
35646 14147 -3314
9208 18700 19145
3256 18880 5397
24210 37111 -2898
23280 37493 27246
1707 15657 27681
28818 5840 -945
5062 27275 -2099
26526 7409 17405
16649 22378 -3739
15631 17323 -2905
11035 22759 -3043
33404 3601 17673
1195 37414 1109
2216 16091 5564
32931 1376 9845
34553 432 16199
1521 9064 -2618
27399 29971 12331
9898 2990 -3163
5715 5981 -267
334 18063 2296
20072 15409 -2463
17911 36678 412
9455 9430 19598
35414 26710 37013
34908 11186 -2131
37032 20668 -3296
26789 31471 -648
27131 36825 28750
24881 11679 20180
5012 5003 -6
28566 8109 21866
31485 18486 -1686
12968 614 -801
14164 25714 23663
14476 28226 15294
856 16757 24757
10126 3452 14841
31657 13845 -1830
29109 15532 -476
4291 8104 12333
35685 27240 24832
4372 18171 16900
33082 24116 11928
31445 5817 -1267
19391 5475 -989
28357 13545 34483
26171 11225 22589
1067 22515 -2957
718 7823 1022
13326 5888 -1031
14249 7339 -3743
6212 20095 369
15502 24016 9440
3543 13785 4822
15226 21731 2455
16489 32533 -378
17890 29869 6037
18338 26136 -810
20105 33813 -633
23498 23236 44
9164 6190 30500
15347 19599 21847
9212 32846 -184
9937 7239 25418
34349 15962 32946
6177 21646 24186
34332 25370 5067
37260 3741 7759
4223 36938 30655
39 34190 5731
27382 31279 17038
26172 33249 16816
20911 29635 34664
8238 30013 10951
5724 22907 -2021
19453 5733 951
37161 5617 21019
17796 11087 -2293
4795 9828 30491
24416 4142 -599
32365 19859 33318
24739 18936 -1261
2935 25106 -3519
15708 6684 10894
22977 19054 -780
31469 4883 269
19522 13360 9607
33037 24835 18165
8658 6659 -3565
24848 26041 -768
11725 4760 -55
24177 15808 20196
4738 23666 9139
16182 5028 3920
9323 9430 30215
33955 14694 -3380
25185 5425 28935
2087 18981 5465
3855 10700 -3078
20954 5654 -1210
36544 14289 3668
34160 28654 -1912
15135 14849 30769
13215 19728 -1759
14793 32495 -2245
12734 2228 -1569
24728 15950 -1131
6371 269 -1334
9760 27669 20370
36816 3020 -543
19687 32260 -2641
8249 32600 -1771
29812 20345 -1804
10086 29198 -285
26951 20994 24709
1181 14385 -1530
10397 37138 32643
17047 6452 3478
8702 34574 35712
641 23453 -2662
20558 5711 504
4734 37386 -101
5405 27700 23829
22555 15170 36167
25265 23354 27002
2487 8090 -2126
23699 1335 27903
2523 27039 28414
35146 30750 -3528
4715 19446 1767
1920 29625 -1983
4897 13943 -3260
13238 3478 -862
32588 27628 -429
895 16294 550
8055 7092 4632
14026 2468 33120
22244 36642 4449
28911 380 27206
21383 8688 -1043
502 3952 -75
16934 16265 3626
34640 6980 6072
16686 856 4901
25211 25124 832
10714 112 -1851
3651 27831 -2924
2324 17105 37250
20402 5047 -1900
21663 6923 -1526
34205 27691 7827
23693 3565 5487
27864 777 14354
32602 28510 -2601
14578 158 32638
5431 14424 -930
21490 22350 -1455
12190 11604 36450
4923 16303 27608
28668 23806 8322
9749 33291 20290
31435 27192 33507
32513 22270 27126
36556 21168 8791
13950 3175 -3357
9151 33040 -1840
14180 9978 19340
5940 34115 -1503
1490 14312 -2154
25852 15703 28687
1255 8880 25276
18103 6753 -1720
25041 12608 -235
29590 24621 23150
23876 7675 14432
495 21943 -2988
9476 34370 -2091
17620 27318 28581
5567 31498 3016
25465 5414 20927
11748 20748 8867
31619 3868 -150
9226 19848 -754
30215 8188 -1100
10817 20998 21431
22779 35503 29810
26450 23021 -2628
9691 10592 -2988
33065 26779 4993
20440 1848 -1913
29045 36281 29629
21194 16170 17065
8023 11542 8325
27125 13360 -1012
22735 14824 4561
24874 18372 -947
9433 979 18370
27802 17075 -2933
27189 22750 -1158
32326 16741 3822
278 29143 4414
31648 11011 28109
34400 14253 24909
20990 15866 -3272
24316 10616 10302
27053 21754 -2974
13313 12511 -1919
37033 29310 -3007
18376 36190 13934
36539 1529 -2870
27299 26341 14861
3474 34351 -2081
33078 23449 31785
1701 26655 13594
35705 10890 -1786
32622 3674 -1814
28834 3101 -3151
9967 13037 11271
16039 5153 -3042
29557 35525 17449
15256 17631 -58
32279 12157 -1191
3736 701 26562
1997 10874 20498
20984 34372 10581
31167 33027 -3294
24928 26581 21564
25221 26578 -3317
14401 20559 12210
20314 20781 -1650
9146 11286 28316
35199 32338 -2987
16934 16784 -1415
10271 6595 16862
24816 1785 -182
2966 21508 -1355
5504 34418 -1575
3634 31572 11211
16635 20122 3413
35464 13126 -359
5411 26303 -282
4214 4452 3435
3070 22564 30730
33587 10735 -1928
35701 28630 -1278
6469 30238 14836
36475 25895 -1250
22479 15536 -439
30771 23672 -3587
35551 15878 23893
10578 11868 -2207
17128 23283 7281
25946 29188 12371
6955 5295 -3328
435 1866 -2599
13202 32060 -2529
23630 20209 18787
29421 29809 -16
24678 20119 29232
24584 2798 36118
20390 35820 35483
12502 24170 3562
35640 6941 4731
26149 1142 1702
9085 14599 -2193
3075 12250 12284
29927 36038 -1705
9682 23620 17643
8733 26953 -2526
23161 18916 -1493
3875 29941 1038
1317 5889 -3357
23602 2346 -3022
30075 20593 26624
34671 16629 21462
32520 36626 -3729
3005 24264 5595
7242 24205 -2924
1076 24557 9944
19935 17167 -2468
33290 34046 6725
36265 36448 -3163
20583 16220 1059
25496 11197 25921
26503 36396 -1799
2643 22333 29496
11042 18484 13262
9063 16311 -2710
1442 20685 12138
22502 14987 -1253
14772 9301 23375
18345 24195 17105
12121 17531 18099
3562 26552 18615
953 27267 -1392
6106 10102 -1751
8505 14695 -3563
34741 15267 36885
13582 21293 30426
15765 6354 -1447
25873 21773 -2682
7392 24005 31739
31155 32895 20041
25389 37260 27500
9263 26328 17347
19271 1947 26705
30258 9981 -2763
11913 32670 -2714
29156 17849 21170
10385 15075 -1384
34833 34591 -3738
14545 2290 -2592
21506 22115 33700
8846 8397 8577
5545 20815 7381
1798 29555 32847
14231 22302 17700
616 30452 -925
12137 7881 32845
34249 15645 22489
30253 34967 -1541
33399 27096 -3696
28092 5970 -2743
4450 28813 -2477
18491 11025 16797
36216 29385 -395
22892 37340 25798
11242 22634 13789
32301 13529 -2219
6062 9461 7925
28352 34251 15010
6637 1381 -3077
33842 10223 6805
20318 6440 -823
837 992 25380
29814 29814 -1088
27420 35896 -2998
8240 2235 10660
28304 26538 3663
4153 21174 24068
33425 2447 -1715
28845 18257 27950
16361 18077 -1466
17263 12472 -3032
36137 31216 349
31330 15161 -2177
30643 30734 33270
19566 32231 -3107
16036 17158 -1846
17603 24288 -3325
1621 32393 -603
15507 15239 -3428
30542 20392 3156
36408 34437 22275
26367 29474 35456
1438 18629 -3261
2830 22677 12773
26747 31217 2697
7264 11404 -1415
7433 15348 -992
6031 8060 33129
6670 1644 -1745
32413 8163 15640
33862 26409 -953
27221 18741 2080
35888 11237 -980
33211 20546 -605
33137 11263 -2943
10693 15186 1844
24622 17996 -1655
37340 32699 5385
29680 36937 -1576
33031 5542 18695
26989 33262 -787
19350 10409 -1879
18089 22746 19724
28259 30609 1683
14248 7028 -2217
2641 11895 -2874
5560 18065 32426
31797 15919 -116
36534 9481 5594
34366 10127 -3348
3351 29102 -2948
35321 26006 11903
21132 13895 -1355
32048 997 15360
18750 4206 -2956
3110 25392 -2285
18906 12780 -70
18654 29844 -2300
26279 13295 32270
21312 11717 2981
7968 25153 26398
34151 3085 4512
7291 490 33954
8897 3063 9896
23917 29424 14774
30263 14428 12427
3465 457 22852
27689 25151 22096
27560 10463 -172
14749 26048 34213
23269 21552 24326
27774 25147 -81
14379 14150 22337
9975 6905 16649
17705 20162 -3297
19835 3301 20310
22742 12611 -2072
13969 21085 -669
27602 1530 -890
25177 15173 24355
24777 35916 -2919
29712 34480 -2288
5204 4042 -3727
15823 16328 -3505
11923 9140 17581
11382 29711 21547
11046 19546 14805
26024 14621 20056
21593 8654 36284
23305 21299 23681
27543 21937 24790
17705 9905 34616
11029 17325 30836
32499 7151 25289
12119 32184 31900
21205 13821 23104
18250 35066 14661
26267 4553 -2687
25754 17816 -2308
11605 1545 22308
26422 11248 22092
2962 19952 20115
6571 13705 -846
15888 14273 -3058
33496 12002 21870
30805 12478 -3208
27285 1104 16593
16950 13248 -2565
14758 932 7079
33225 15991 2032
8828 324 -476
9612 2774 23522
9540 4651 26866
28452 21309 10633
26113 16187 -163
10705 4106 -503
13331 28859 -835
17180 10359 -3534
22481 27297 -3260
22523 30658 20253
5063 1743 33971
25880 1948 -1651
15444 1732 11279
6271 5901 -3343
6226 23812 20823
11250 16629 34602
29872 15234 -699
35311 12042 9787
10597 15160 24465
22584 10497 -463
13386 26234 9909
31001 25795 -1694
4725 16817 7854
1687 37076 -2552
16737 809 -1776
33800 28499 -637
4241 30536 -365
2598 12281 31847
33332 33737 -1612
35665 34626 -437
4770 9433 2901
33570 17731 -1884
8582 31620 9271
35630 15 -2087
25973 16311 438
13885 7264 -1651
28122 6037 16068
12741 18675 -1620
6218 36030 -2206
16483 5823 -555
28471 18129 10162
35237 25531 -3507
32453 15637 30435
10638 6452 -1335
15132 4723 22466
10881 34338 -2624
18574 681 19895
21281 33045 -3199
28799 18523 -3391
539 304 -2968
4735 34639 -126
11981 28417 9639
27197 27182 16813
31488 9814 34493
34784 1750 -3129
4504 1503 -3056
9328 5981 -581
26219 3275 3538
31282 15162 35249
12733 13401 -2091
15878 23193 37321
27173 12764 -335
33135 2346 -2353
30653 26623 14044
11607 32381 -145
33085 4907 -1651
22843 6940 15633
8143 6932 13847
7334 11348 -2871
29378 5001 26955
2890 20204 3120
9609 33509 -3297
2909 31645 -3096
9940 9734 -2879
9909 8881 22134
17973 23154 -1536
14816 12933 35909
35550 34291 8182
36437 4648 -3146
3551 25615 -3512
28503 20973 31097
30724 16855 35475
23042 5622 -189
10905 27990 -2542
24609 35412 21965
25724 12619 15714
31649 33588 -2698
28576 9045 -1026
20941 19142 35650
17515 1852 -2575
33174 18472 -2449
12073 29994 26515
32868 22498 -187
756 35407 34861
17901 20300 -940
3353 30178 -1663
36176 6842 -3610
9399 35131 19842
28101 15134 -2671
36953 3768 34802
33509 33182 -701
24529 19489 -1597
4528 30174 -247
23091 30804 10833
35123 17888 -1983
7486 8100 -1146
17816 184 15946
25008 34713 19366
31950 9800 21303
5002 19925 6272
25999 8730 22496
20711 20444 3578
32752 2119 8463
804 9238 4488
19371 3754 -1226
24977 29746 34393
25470 1279 -2597
34123 9649 -1096
2619 31948 28587
35542 2215 1521
15179 9419 6258
12435 34681 19956
10033 27446 -3092
26590 19613 23881
7855 16815 -1986
7145 9840 -3648
21816 3023 -2329
6761 14466 -593
19138 28762 -635
29521 4084 -1137
29539 5253 36561
36981 7399 18589
23992 35140 -533
32025 14289 7566
11766 23049 -358
5207 32840 25746
562 23150 -3127
26836 1534 -2032
14065 25630 -2229
3240 32593 13432
32618 557 7865
219 12181 -756
12069 20859 7901
30150 1099 9927
8549 36161 -2395
9792 13076 30720
20018 17733 -1512
22463 14892 13402
17930 34589 5902
28076 7527 32322
31756 33743 7483
26590 31235 15720
20980 23424 -1324
31777 8453 -2411
15820 10922 -1608
17871 20259 6935
8222 10502 31535
27477 15164 13054
32774 30238 -2130
9843 24225 -2759
6891 8183 2330
30208 10269 20508
27377 10498 25612
17540 19916 -82
31795 28514 -3161
29956 17419 27280
8078 6856 -3295
13727 10602 -3158
15281 31742 -109
34561 5081 19946
22379 25585 6218
26923 2637 10402
26712 36865 15777
28495 1830 -58
8615 8282 -375
24536 17126 -3079
20293 27257 -3560
15927 13818 27047
11039 10599 -2486
28451 16021 -2893
7010 21289 4514
36235 37346 -1630
15040 32502 2857
9665 22571 10760
3252 11267 119
15444 29403 -3304
19996 14321 -2701
10307 14598 -747
18046 16167 -2790
22865 18744 -2204
12948 3030 -1737
18802 10393 -1280
9307 19753 -2349
5452 3031 3269
35641 30529 -2046
24685 17135 32985
771 35951 35288
28670 4650 -3691
36413 776 -257
7876 19031 -1426
19261 8259 -3159
30364 32493 -1961
27293 3733 1107
13494 5350 28485
37305 24454 -257
4853 23991 25024
12916 13733 -2803
32951 12097 -2245
647 31203 -721
14105 24651 -883
34548 4181 3871
6098 17178 34971
4918 18273 14438
20987 32874 -251
4475 31567 26314
23175 32897 24485
9656 16107 27919
6709 35814 -958
4262 36804 36248
31020 3156 -2650
21898 35424 23871
18378 18274 21611
564 17983 30405
37209 16027 10277
36700 22665 24672
24701 3584 21047
16616 16748 -1310
29880 16930 -2654
7963 25415 -2440
1355 750 23260
20608 25818 -2836
6653 31658 -547
34197 34492 -3613
1139 7130 26845
21577 19146 24199
22452 27864 33375
35511 24868 -2078
15282 27728 18722
2741 8642 3287
26838 21550 16026
20463 30311 -3010
24761 15161 14942
21213 17469 25822
28882 11764 32365
25817 5662 31227
4618 898 -3609
30710 28370 35396
13750 21770 33190
6694 34529 -3717
3185 7574 14558
26297 10277 18973
14478 22305 25773
18822 5339 -3132
22209 30683 33
23027 13498 2827
7971 27557 12818
31040 23869 -3221
33663 22811 14614
37135 9246 -2267
29975 290 15010
34137 19697 13379
3086 7397 6030
23596 36169 8259
23755 25505 11369
29352 10586 -2449
23136 9511 11770
28906 11265 -939
32891 8717 -2583
15579 4864 -516
17529 9971 30396
33243 36874 -464
24454 10233 23758
30903 740 -1148
18447 20642 -2060
13134 32826 -930
24455 3979 -1398
4858 32099 34140
23986 8455 -2054
19877 30563 29934
17524 34197 -1841
10365 990 7863
10871 32945 8740
17534 5927 -3646
15808 5619 15662
7212 26348 -1448
10232 14222 32160
745 19876 -2209
12930 26468 28604
10138 19662 7596
36880 15206 -2993
1841 21681 -760
28312 15444 -3657
26237 2872 29469
8352 3541 -1875
5047 1599 -1087
21603 28827 -897
34412 26988 -2013
2541 11623 25615
13504 16813 1936
1748 36234 -3228
15804 5950 20870
7667 16413 -1624
5489 2085 -1017
2311 22100 -702
16849 9570 30261
15925 8538 4203
9852 5659 1356
8871 18809 12354
36494 8633 -3506
5259 12020 -528
4828 33478 27845
18796 11063 11785
3219 2230 -3476
3336 5406 25427
21189 37106 -2810
3284 1227 34029
5875 4209 22038
28937 32143 5569
5532 13479 28823
8244 17559 14282
36033 1649 20761
3479 10539 -1699
13515 24447 17177
24507 14347 19904
11575 20785 -3559
21021 26022 -149
34458 11241 13802
1503 19871 21110
31685 4693 26598
24939 16558 20405
27620 29299 37244
36694 13371 35118
29388 14220 7854
12500 14837 8341
17675 17538 22756
30385 16349 14121
18135 10927 -318
12541 35148 4639
15838 35995 -822
16122 26616 22535
15152 26818 13602
28078 8839 199
21825 19293 28724
37165 29176 29571
12929 34682 987
15804 30596 -21
36921 7681 -1680
7434 16941 17547
33837 19866 -2379
18149 25883 -1177
16241 23660 29245
26191 26997 -3703
20217 3093 672
28723 28257 33174
32965 3843 29812
1794 36284 -262
18870 28 -1406
35302 17414 28159
3960 7575 -2390
2147 18755 33793
1329 29338 -271
6251 36611 8270
3675 8961 7675
1355 25840 -1561
30010 25249 30562
32101 35431 -1397
9833 30412 1626
9527 860 12280
9188 464 18572
24779 8990 12769
12037 23515 -3170
27710 16386 -632
31754 790 11776
1763 30610 29238
33024 17617 22835
27726 17500 29259
22741 11112 -3616
27465 12088 32312
35142 19852 -2556
10514 4388 -3139
2748 14184 20260
2595 27089 11280
10499 11673 1128
8632 12002 -3220
17981 4009 26060
19361 4609 -648
29670 23399 -2771
33013 22428 5874
30684 4610 25197
36032 33108 11050
11388 15697 -1635
11414 29054 -1943
12147 31886 15093
35483 17174 8677
31815 8134 34628
24397 22606 -1058
13 12976 14708
9067 23006 -822
796 9027 -329
18691 24049 -1985
155 7425 17771
27777 10755 22882
20186 21222 18155
13578 24920 -2092
21776 4717 25330
14538 37169 -219
15672 28305 33795
35445 12070 -2325
4347 4500 -2369
34053 14739 -437
17280 2571 -1816
26864 11889 -986
25997 21531 2846
9034 30987 -523
18277 35838 35504
23178 22472 -3179
32314 19172 11501
14028 18916 9679
10181 9773 -2217
12618 16653 23018
3119 23044 -2340
33091 16987 -3541
25872 16130 -660
35751 23887 20268
14577 14087 4151
15896 19164 29108
22484 743 21384
2758 20740 -447
9977 1516 4013
27686 20171 6288
9416 15506 -1064
928 16181 11049
14086 16706 -2330
35468 31442 428
32494 33286 -1292
29983 15728 29662
13672 18191 7678
33239 18157 36013
34676 27994 648
31797 10434 14073
5911 7910 25161
35482 20852 -307
20883 36111 1161
27243 14362 6877
29354 3990 -3439
33931 591 21726
34352 6629 21309
30186 25254 29585
30702 22451 12523
966 8684 -372
1358 11863 33399
17102 21538 18913
19289 96 9683
9148 14902 14426
9907 25949 -1751
33601 10464 1461
23505 28817 20068
23953 20824 30151
29012 26419 27291
17466 4832 35007
5492 12034 -984
22476 32873 -3383
8710 1792 36794
37121 2085 21673
24496 20305 27797
2034 8932 -765
4624 8301 -2091
16438 26 11042
22071 34768 -2100
12171 14589 -2326
10838 13874 18603
35340 16439 10588
10393 33693 2064
20264 480 -2601
21055 12095 13803
27886 1421 -6
30094 11659 -140
256 34341 -2774
389 6159 35169
35507 1703 -2271
8007 29160 -585
4701 31181 -2434
10751 14250 -2633
27639 16430 36333
10242 19179 -580
17851 10780 4018
12645 30008 -1378
11102 13455 -104
8425 25016 16130
16933 18676 -3128
25927 33008 6502
36323 34661 -642
929 20940 195
23719 32545 1595
31072 15636 24690
5752 21477 -1527
20732 22407 34137
4337 37285 18501
5599 22076 -904
17565 23556 6024
34593 27863 30721
24459 17768 6989
12847 15568 -727
10997 27288 -2073
3659 24097 -843
31418 8310 8139
28742 18644 34712
14333 12252 35194
24225 19822 15353
12968 21362 34374
32125 6870 5877
29684 18741 -2673
8895 21029 -1505
30771 29323 33420
10862 32988 26058
2982 1909 7355
26190 14245 -1899
10733 22022 -283
12249 14094 14575
22752 35699 -1596
12307 6494 -2708
21018 4740 -1249
8575 4251 29759
32591 37215 -3191
20498 21310 27128
2470 35257 -628
29014 32026 -369
22477 31363 -1897
21766 28137 32403
12241 18869 28200
34535 6408 -3387
24904 8972 29802
14214 12990 -2784
25395 31592 30968
20055 22710 -2284
16595 24495 -1394
5426 12115 15945
13455 29690 7303
7550 13504 -3495
17897 29062 5118
3906 19827 33255
31727 2813 -1924
34158 24710 32160
3433 21208 15099
8150 20325 -2524
32489 27148 37471
26661 34420 -651
6026 21744 -2208
18793 30702 -911
36718 3613 35896
6022 26040 28863
22351 3706 -1711
13548 34458 -2838
16609 4657 1017
9368 26590 -1675
37141 36648 -1266
6335 26275 -1278
20714 20789 -2394
669 17184 -29
28359 37149 4713
4753 17885 -196
10755 33982 -1794
33090 36337 -160
29200 33217 9332
23214 12698 36914
32449 7334 6806
16606 16088 -684
19096 20893 -2414
33625 33451 -471
32565 14753 -3657
19812 16741 -3446
37364 4539 -227
15853 26039 3366
5690 25353 166
8190 25953 -2590
2183 16146 -2085
764 8262 22629
15332 6961 20032
34781 31074 23821
30303 8038 15214
20620 3595 11924
30943 31943 -1340
27595 15795 -2792
14771 15431 -37
25456 3759 -1560
29036 36819 -3024
17109 848 -1660
4153 6077 -2467
3016 36892 13638
6536 21703 -2729
22939 36028 -3283
25565 21643 -2031
29793 30554 -1338
15490 13088 28881
31506 7139 -1607
31826 33741 -2100
2732 16999 33344
28419 35258 1570
14366 29770 4237
17045 16759 -1929
24642 16718 13281
2944 27240 26645
3621 8632 -865
33900 2995 19953
30229 14049 -364
7479 593 -550
35986 28481 21834
22402 8851 34363
17477 6061 2204
35826 35428 -2955
7998 24296 172
23155 25041 -601
16986 9796 13482
9618 36169 -49
8165 18972 30364
31550 34444 24901
31473 25675 24052
12529 14077 -3502
5041 30037 15793
15113 21200 27915
26941 18659 -1058
23854 22854 20719
11386 36577 -1742
26091 29905 29393
10927 12676 17746
12464 16008 -1393
1494 27568 -2026
7095 14941 15606
7485 2655 12783
13271 26441 19005
13791 1763 23009
30149 3601 30164
6556 17749 -1622
34961 5638 -58
22708 4946 -2579
16125 22074 -2846
24119 32304 -1013
5485 11411 24895
14755 17852 35446
31558 20925 10499
5766 18884 24706
35822 3326 224
25834 26934 11861
2245 4404 21052
10198 30655 -2042
2933 9121 -3259
29380 18681 -734
11218 19680 22860
4975 4919 -1812
35952 3715 35736
21991 22913 -3747
20477 6994 -1013
19582 6171 -54
31423 10589 25842
14100 3345 -2543
6614 27021 -3343
2355 23739 -150
23296 24790 30710
29520 13608 -3186
35606 11973 -2283
8092 28443 -3220
20166 28249 -1885
31422 18037 -3145
31071 32669 2050
14910 28917 -82
7271 4849 -3224
19621 9130 16032
13956 21204 -1040
36473 22850 23276
19980 498 822
19758 3146 34929
35565 10499 -1417
12000 15794 25435
10332 16323 30356
21913 12790 -2975
17117 18646 -2185
17913 18732 -3336
1126 31496 36231
25010 7107 -3749
26013 14674 -3035
4593 18132 17993
26803 11024 -121
2567 24073 33481
532 7528 -2021
33912 36521 -2393
30142 25625 11325
3942 12130 -1319
18339 34392 30085
32113 20282 30834
25316 13032 -3640
654 27876 25676
24931 27423 -3460
32338 36117 22646
3173 31657 23129
14255 11867 8590
30406 24530 -2957
7767 35702 3
25368 19299 29865
10135 30205 -171
23221 6874 35436
11154 8617 -1598
21555 14349 37388
15662 4308 -2856
4747 7943 -262
654 14398 5796
6207 34294 9188
2272 22371 26804
16063 9735 21538
30435 36925 -3151
34540 25333 4952
18442 23866 20599
18966 23899 -2483
34640 24945 3490
9796 5956 28416
8494 18417 6470
1392 13692 -309
11589 11777 -3369
3175 8099 35070
12244 1712 -3310
16742 6801 3372
36607 35509 36917
5021 33800 -3347
9979 16833 -844
21627 32674 11641
17180 23219 -912
15995 293 30646
31467 10879 -224
30568 29466 -3639
33458 30934 -3113
23861 11299 -2772
2109 34664 -900
20928 3904 -2449
13404 9346 24898
14052 31929 11297
21160 10937 12471
4483 29292 35266
16733 5676 -3328
30671 19237 12869
37397 16910 -3422
34895 6849 -3425
10308 10002 29680
22905 19153 -617
34797 33793 34863
36335 34322 13899
18252 677 -3129
4383 7318 -2890
6736 29809 2074
2396 7835 -1229
32071 9692 -873
36911 15235 4693
36210 14611 33086
11258 36501 15
29259 3261 8371
4464 7355 3394
27899 18398 -385
14982 26940 29915
37037 3346 14369
33534 21426 -863
30278 34181 -61
30331 34640 -1807
7119 37173 5901
19761 30578 29310
20885 9652 11212
13773 22751 1303
20601 28705 -1934
26868 31154 17321
9968 30492 33456
21738 15261 -1023
21433 933 24112
13067 31110 -2402
8182 2273 -1434
16808 5862 -3120
25450 1481 14697
14348 20460 7718
25178 22173 -431
26763 12430 22507
36120 34221 -901
21472 18612 36347
33859 31065 -1079
37367 24226 5296
25327 18580 29774
23907 3304 -20
28835 14343 -3221
7160 10736 15759
30476 25315 -1418
15402 12504 15521
15568 24534 -820
25192 11071 16028
23397 17669 -1240
2073 14785 -2182
34905 5094 -1979
13636 1059 25768
37449 10789 17590
31170 5834 13691
5981 17353 8112
32494 16078 -50
27680 21994 25949
35560 20487 -2708
16861 24148 -2161
29697 30888 15766
30818 36382 -175
19373 27296 -1739
21215 1419 13847
23216 12488 -1643
7329 28987 30616
28082 5489 -2074
6603 31413 -2770
36556 9683 -3496
19777 23312 15396
34534 8948 11679
36588 32731 28912
3514 19023 22831
386 27931 -464
18311 34642 -2575
25234 10122 20156
17046 35853 31573
22529 32283 19376
31335 3056 12179
8474 24048 328
31094 28882 -881
16050 29820 16823
9132 25531 -3137
4932 31922 8232
15230 36395 32231
3355 12251 32085
27500 30904 -1924
27427 33446 27236
11169 7321 -561
35084 3197 -1572
33453 14431 2863
34068 36214 -3187
11268 18024 6872
4624 33712 7
25384 17923 30124
21903 4085 6205
9842 37216 820
26299 22491 -1909
34627 18332 -2236
2248 34012 17564
6094 17350 -3331
2642 14860 -636
3878 9564 -2608
15979 1231 -3484
28531 31978 -928
22060 23298 33316
29175 21067 -1288
34565 28391 -3166
29873 20831 -1290
17669 18688 12087
16153 13959 -1378
30973 10297 12297
14039 4365 -1252
36007 30459 -2756
31870 21996 -1434
15837 8119 -2607
9187 2440 -3733
12886 32116 28982
27882 18192 2917
18014 20767 15233
9132 5887 35733
19397 25405 11805
17288 2279 -1246
1031 133 34771
34363 14542 -366
26803 12504 3950
36430 30795 4995
2199 3170 36290
36056 28698 16261
10090 27953 -1708
27684 36440 -481
19825 11210 9342
25641 6983 2693
725 20366 -3476
14753 23255 6001
33332 32777 -101
24273 7448 2144
26302 4868 -1635
28929 5368 23697
20893 26919 17301
23598 27234 18950
1810 27397 -2676
13109 191 24310
13429 37247 8866
25395 33584 8608
24683 34572 8887
10640 24196 -1896
28756 26974 14263
35111 10847 30675
17655 17213 -2489
4420 46 18169
3612 34790 34198
9995 22360 -1754
12204 20000 106
20582 35266 -1269
3676 10729 14156
37041 1957 -2756
13282 1108 10072
30388 15963 -2069
24520 3979 -1373
32535 3072 -1405
22083 15332 23916
31521 29810 29792
18477 21297 -2177
35165 21637 27637
5809 27037 25439
6705 15971 -2133
2879 35682 -2414
1538 10288 -2653
12939 7407 -1358
21863 25076 -2093
21078 10053 -2901
5025 15499 -993
29983 10376 31278
3643 12982 -3596
13062 33598 32153
788 8982 -3033
9062 18773 15434
16974 23743 -2381
29132 36184 24145
35413 33262 -3083
19377 31206 -1249
20714 10329 -2456
14767 2804 -1351
61 30759 -1937
14253 6942 -3069
32413 10781 -2701
2923 15248 29790
12670 12658 8993
19555 36409 28356
33891 29182 -238
35264 20214 29482
8955 1053 -1188
11514 24571 16267
15432 24562 29755
35207 3397 14126
6632 24844 -3685
27203 18174 -2254
35002 4840 -2222
17406 3659 3968
15399 29554 -183
6316 17438 -3578
32045 20585 22608
37388 139 17572
6642 3611 34007
1806 32964 18453
4402 1356 -696
30188 32906 -2933
26342 8042 -1554
9408 24444 14880
4269 23292 8289
35236 10816 -2703
35237 14234 27121
3534 21625 29189
1932 31221 10194
3853 9399 -2933
7185 29803 6352
8484 307 37276
14061 27789 31518
14230 3069 -3281
19103 26578 -2389
34340 21595 6560
35162 25479 -1530
1762 25072 -1967
26545 15725 30747
24877 22489 23396
22263 21575 27206
23368 7833 22166
30838 27178 19654
22247 16903 24586
19265 10864 -819
30329 32377 9703
33455 2640 27684
13565 13233 -699
9167 15332 36852
19568 19148 1775
31050 11359 -1455
16612 66 -1063
13566 22515 15107
31513 12223 -3118
33418 32785 -2696
21167 27300 6884
17244 23945 7522
24422 24301 29347
33776 12535 6099
12748 28438 31820
36042 35717 31623
8746 21591 -428
11395 2013 31155
23530 1241 11190
35668 25512 -3334
19475 3854 34495
9139 5950 -1948
7733 22647 -973
16751 25478 2917
252 29821 19433
10961 11106 -1138
11034 33589 -2206
31630 9499 12777
1355 12151 3050
21834 13587 -3058
25704 12364 -1624
5497 16159 -3087
27324 693 -1399
24648 14834 -1372
26736 30286 -1420
9981 10805 2747
2048 15138 3794
27031 14856 751
19011 2609 -380
12050 28511 21676
15561 7342 -3433
19868 5284 4131
21827 27267 905
24794 31350 8528
27900 7406 -366
3961 33252 -2901
2330 14736 16554
34958 1059 31250
15485 36168 -1620
18670 34603 -1912
19623 31186 -62
21389 34083 15165
7218 21230 -420
24460 27796 18003
23442 29536 29847
176 4715 12712
29722 27863 -33
25897 2004 7940
10729 1833 3111
13776 30268 -2232
5018 18525 33724
22905 35784 -2229
14984 16178 -12
23706 22123 -1878
6996 704 -3613
16231 25609 8761
13464 13357 24719
3391 27601 34994
25905 4553 24446
19385 4107 6732
21205 347 34213
8911 4773 5806
1247 36500 5386
9512 17193 -3373
26437 29903 -721
32411 117 -606
1274 23078 29395
14732 3495 -585
13067 35117 17359
1652 7801 -2009
31218 24352 -1789
21606 34055 24162
31294 29344 -2508
16751 25658 18518
10191 29258 15458
12875 3391 15056
23445 20775 2504
36488 28845 -2493
28114 18004 -7
21438 14681 11482
33080 25544 26862
19659 5851 24496
1159 9418 -924
8687 7274 1254
4004 13693 31898
15090 35215 -2305
7044 29022 -3223
6880 32164 643
13192 24842 11283
6735 30135 26674
6482 22188 -763
18473 33586 34059
6550 4900 -3077
31109 2988 5405
4163 36507 23427
16009 21963 -2576
11072 20248 6292
22500 31349 -1175
29904 26124 -1671
9809 27892 24862
8730 7295 23326
18811 14352 16785
28128 25527 -1061
36820 3975 -1821
35064 25200 5987
26466 32578 -3236
654 24432 19428
23099 23119 -3675
7233 29243 6791
1663 14101 16271
31958 25371 -3463
32276 30508 -3370
22395 1331 10063
29463 34219 26869
18073 5471 -272
1136 12019 27149
21503 18561 22153
5033 2535 23130
33597 26807 12042
37226 2882 -1042
28074 5408 -2862
26195 27589 -2990
14068 6138 15731
31883 20765 33964
33723 35495 -3103
37233 26049 -3447
19039 11119 -1940
34119 24296 -1489
25639 37115 -3292
29661 24166 -1007
5478 11938 -1076
21899 4927 35604
12687 2673 -804
19647 21394 -2249
12019 13421 -1106
19271 17873 5250
36189 16211 32889
18168 27743 -1009
29573 19825 -2775
30265 19581 27385
7882 17822 13061
34218 7329 -2569
24898 34626 -2909
35 27736 30388
11364 36764 8383
30956 2221 -2577
27040 16860 12020
9703 23212 7940
14896 3047 11073
33455 35446 17593
6192 37166 -1205
1319 35163 -2865
6880 6239 -1399
7642 32134 -1152
30764 16607 27591
27965 28600 -3189
29455 29047 -2938
20339 30063 -3039
8510 12388 26791
6071 36782 -277
35410 30689 -2719
25125 17312 -3291
20677 35325 -2247
27901 9410 -278
3968 23341 21267
28778 18657 -3229
8225 5228 4132
35239 20725 -710
9023 102 29533
20574 4877 25560
36675 28338 -48
28737 14049 6793
20786 15639 -2406
24933 16216 11800
34706 32221 -37
10904 28195 14711
26400 29291 10852
18701 5777 9982
33158 28252 13301
36243 6129 20932
27414 16741 14857
19086 6122 30478
19255 26682 24821
27530 10945 -1154
6893 25797 26406
28861 21705 31153
25751 37306 -3602
36311 24469 2132
34672 2519 6341
8551 10437 30113
19710 17086 -1123
33643 20209 20203
15277 25278 8962
36267 34809 22096
2082 23993 -555
35518 20394 32081
35320 8589 27544
7663 26533 32802
15996 29863 -3233
8929 28560 4266
12768 12393 -1261
13781 4010 -753
34256 3694 -3620
6394 4351 -2268
30029 2975 -1484
351 35368 5652
27973 27746 29661
32255 21166 26188
1687 1993 30447
26762 1083 12837
21255 10731 36238
25412 34057 -1128
20569 7487 11737
22343 8101 25500
7894 18208 13368
34309 16061 -2023
7407 32004 26663
31680 24004 -274
7030 7979 -3520
27214 2455 -3162
25513 5585 -2240
7190 31592 -1554
29587 262 25669
18359 13706 2735
20405 36746 -3612
29009 24608 -439
34355 15337 20080
8611 35141 18187
25650 26861 -1740
15262 36727 1867
12174 25841 -1086
34565 18756 -1253
334 25668 32157
23507 3686 -3530
31753 506 -3662
23851 17145 -359
36944 8937 -253
17541 13180 -3189
28257 9120 27324
4127 3371 -2686
10901 24258 -2897
37046 30021 -2401
27172 2256 2408
13762 25356 27701
8888 18945 -198
25850 14583 -55
1787 23340 -1557
14741 13007 -3748
15379 31866 15750
15680 3195 2859
11684 28165 -2399
32155 24961 -505
29608 25766 29079
15557 25719 -232
17780 28079 3946
25781 14925 14366
20445 16492 23345
997 4028 28098
29414 11583 -306
16724 36905 -628
4777 36380 11000
7717 9139 -233
21671 25520 -3364
17989 17676 -1310
12454 34243 2979
18438 23309 -1987
7023 10945 13330
35295 24757 -3336
27825 8677 24218
29412 5653 18590
8248 30558 -837
8005 8668 22269
16758 28893 28476
10095 12194 -742
12844 33262 5906
14130 274 7331
29620 34939 -2098
29280 7867 33434
5665 37211 15080
22902 25479 -61
3357 23344 14879
28146 18260 12376
24759 5709 18550
14082 32525 -1733
7856 21747 -1458
32870 32293 -893
33338 27243 33744
13415 21000 -92
37191 23620 -1327
27304 15047 14000
28700 27500 26178
3297 36627 -92
8716 20124 21670
2590 1111 -2849
16272 9425 24397
14475 37320 2073
31562 30798 27470
27950 25949 30195
30605 16625 -2441
3583 25978 -785
28664 3952 -1721
3883 26162 35697
5104 20510 810
4602 16041 11833
24306 27764 -1455
35414 27820 -1833
28815 23708 9510
37123 27225 -3015
15837 29249 -551
20760 21718 -1087
15456 36406 -821
30347 3870 7084
23321 4968 28607
17616 7447 27325
26 20159 -3569
11228 5370 17970
32124 4729 -1724
17531 9785 -1983
32968 10156 -1386
16334 23011 -3338
28844 21002 -2609
1777 9700 8847
37151 9446 1878
25210 9590 11457
22023 9501 -650
17586 30316 -2067
5407 22672 3859
5038 6367 28649
35199 30814 23379
35289 8800 6614
10081 20795 32605
17930 5624 28820
12358 29334 20548
25762 19787 -3532
10761 18006 26356
18093 22487 14531
2256 28133 21524
16975 524 -2984
36227 14757 -3075
21416 27329 16442
2345 33259 -29
22113 19302 16323
11659 3272 29095
5741 30870 22135
4215 7001 -2291
8428 3686 -1198
35410 35204 -55
10440 3233 -2772
30759 17261 2361
30370 11541 -1869
13427 35187 -1439
26837 32256 36678
35229 22544 14266
8799 30591 9206
34060 1623 -202
13315 4171 -2163
28051 18507 30737
31534 8062 19277
11555 22709 -956
12317 12801 -2412
6773 34001 34488
6194 16223 27256
6391 27631 -3364
2117 21903 33376
16075 13661 17143
3806 30851 4073
11056 18310 2525
1234 1415 31267
31596 4839 9001
10506 24883 15085
25125 34772 -1527
26569 20025 19984
16554 36329 6521
34046 22480 -3124
1978 5732 28599
32509 7886 -829
13910 14821 -2729
9074 15148 -1346
25800 36762 -1200
10751 21728 -40
9203 20751 11067
26849 13647 16174
4574 29066 -695
30301 7381 -2238
26544 31848 -1802
15959 15169 7439
7248 2644 -954
15298 34070 3440
1329 16236 -2443
35954 19220 -2250
15364 496 -873
30449 16024 -280
1284 335 -3445
29950 33806 3545
13394 1724 36408
19156 14772 -112
29424 27678 -1310
25051 15132 -2423
15432 21948 7425
2317 5126 8411
20783 18252 966
29577 27015 24276
3317 28726 -1540
34085 36080 -716
19116 33859 -102
31988 11870 -1505
31599 15443 -978
9741 33438 -517
1496 27756 -1846
31406 28023 24046
12892 33723 20328
29335 17795 -3455
14913 22549 23944
3024 26428 19744
22850 5380 29258
14389 12118 13106
14422 18649 -1985
7679 23632 -3157
24377 12293 -3741
29913 27194 -2569
2744 22880 -1010
36306 32995 -2056
32925 30808 -3442
19933 7883 33239
22687 23338 -90
1856 21766 -690
8543 24059 -3036
8823 23019 12093
27469 16396 22457
30852 1371 17913
13381 6214 29232
24947 8660 32204
2770 10734 20462
20332 5806 30553
10468 20328 7595
1827 11900 9993
21785 14866 -1364
5442 33150 22258
8520 21589 12424
26038 20582 29533
10238 16472 21904
21365 17208 -768
26264 13935 -358
11647 20863 -3640
17998 23258 -2092
28907 17675 13125
17321 29644 9255
24631 32421 -1266
12718 1863 21585
24657 36699 1909
19675 2755 -1987
30988 37097 -2365
2471 36898 6035
26757 17104 11456
11907 22233 25142
14225 34000 1318
7613 8340 25771
6215 23904 -2483
12184 26040 5497
1014 30038 -505
9870 8663 36701
34839 13055 11685
5829 18517 -61
8983 21989 12355
31241 25264 27893
21626 24808 5487
31468 10203 -780
11127 4243 23195
15603 35228 -659
35270 21235 21360
19424 17021 36525
21374 30557 32135
574 33660 -2442
27403 24928 20531
2973 25290 10556
31764 6998 11838
28786 17397 -3656
19468 18344 -3565
29110 34712 -820
23613 2290 18027
28372 6542 7477
7503 8580 -404
5284 10486 36211
22681 28066 -2051
7210 34546 17100
22907 29796 5030
12293 17737 -176
25412 17101 3251
33520 14506 -1839
20794 32582 -531
14462 36393 -768
18113 24452 6053
7500 36222 7316
31402 26744 29873
13384 15124 4158
36898 25848 -2249
30714 7421 -1654
25190 28551 7358
14245 3781 33953
16561 13604 22990
4617 14576 -2323
2349 20898 -770
11143 28493 -671
5576 9249 -3547
37364 7889 29102
30788 16852 689
3580 11004 16230
12509 9097 -2634
26145 15978 1995
12025 2505 -2991
2815 13132 -273
12538 15879 5391
32829 18650 28308
34928 32946 18798
26034 26810 -2139
15312 4343 -488
165 30268 -2712
20192 13141 -2646
30230 32125 -3603
20371 15622 -723
16312 31567 -704
33060 25477 24983
3612 18514 -619
9451 22598 32812
10838 8294 -3120
23921 35369 -3057
27463 10639 26648
31403 31221 -2669
30759 34277 32407
16955 5991 30414
11869 25209 30637
36573 12036 -3105
18758 36249 33935
28394 11613 22744
4664 31021 23108
31490 16422 157
4718 3949 34868
19023 5733 -429
16531 5645 27783
27681 35817 -1857
17255 34428 -68
33729 13515 -993
12799 2178 -456
28852 30896 0
1950 34968 36815
24138 34726 25937
34279 27121 -1549
1366 9509 35915
30160 12935 -2253
34060 25479 -3355
35637 11759 9286
35159 12708 34899
11752 18282 5320
17446 21348 -743
29816 32666 1055
13376 23158 -455
33811 29391 33439
16131 35862 -2864
5499 9963 -981
12763 26552 8322
26500 36308 36766
32695 25238 -2265
2182 36540 -78
16359 19122 17244
33308 13292 -1590
15390 2820 -3646
31152 389 22618
7908 8039 10767
10602 15469 10415
36605 11717 261
5182 21096 -3480
27299 15273 2286
26347 19901 -3008
36696 35696 29683
36072 32267 -595
19092 28470 -2341
2916 19267 33859
34140 33151 -2377
28367 2713 -2680
37479 23259 5228
18117 8542 23137
27174 1833 28054
7704 27386 -2323
6427 31860 -886
23459 19397 17844
29952 22901 19017
4843 36915 -1156
25533 7698 -3091
8594 15000 -1259
8245 4736 35607
1984 21775 2509
2403 37119 27133
31314 2017 -3744
25382 31909 -2483
3584 7633 8914
6501 28158 3092
14806 14643 23619
27028 872 36811
12258 9327 25397
9767 20538 -3379
30743 17230 -3280
35366 5363 -3626
4010 22185 23808
24726 8742 24202
2142 21772 -2694
12575 31906 33344
31851 21265 -425
178 16888 13954
23777 2529 17310
30510 28381 -1568
27710 29623 13576
25478 31114 -1465
8030 31266 12073
7926 1292 -1255
12936 36016 -2340
19019 2071 -1467
6113 22351 5924
34657 21314 -1132
34052 32671 -706
814 11927 -1378
8459 2072 32992
8651 15168 -1962
18457 6939 14517
3177 23158 -3572
35598 11341 26950
16113 26989 18158
32944 24099 -3362
28397 12792 6094
29273 30520 20973
24979 30744 33333
26601 24384 -1332
35157 8934 -3676
6583 5792 -2874
4250 21638 24537
30775 23890 -2275
9866 2214 14876
19917 21053 21464
5978 525 32924
27342 15847 8381
24084 35761 -613
35441 28390 2998
26788 3880 19414
10182 34139 -3542
21706 3037 -3031
6920 6441 12918
29168 11638 -621
34196 13475 12534
2887 37218 -394
10555 21095 -1923
22919 7722 18675
2081 33445 11149
13580 10004 -1508
22940 565 28116
20283 36208 -2235
22604 12911 7136
11297 24991 30013
4269 5007 24519
15142 27365 -1506
12896 29214 18425
37205 17434 -1290
14573 19279 -1123
7673 2313 19529
4692 32615 23861
25902 9395 -1509
4701 33709 20521
15674 6133 -2201
19301 24246 -554
25348 23854 16886
24302 7437 18423
28153 22777 -3472
9649 9741 -94
433 20030 19736
25919 6407 12104
36740 23134 -3534
21844 2518 11631
4317 13073 34765
31525 32388 34891
36550 17893 27855
10563 94 -1184
4293 2753 -633
34325 35801 -1970
1316 8499 64
13947 22607 -235
32117 4286 34779
31264 3360 -1798
36620 17994 11317
12942 5345 5834
14012 28520 12342
10652 15363 -3591
29816 4426 9250
26997 22153 -2203
11302 36672 -2974
16593 29488 -3434
9199 7002 -3133
28806 25813 -3377
25894 34988 3658
20720 34566 -1749
8663 1425 17434
20966 28402 18531
17312 25218 -1772
17797 12272 -1045
8479 30378 -3527
12273 288 -109
31852 35108 20828
32034 15143 -3168
24736 11185 -1167
33994 7194 -1254
27103 18026 9834
33998 34718 13884
34352 31171 32485
18051 13740 -2341
8415 22153 30487
5034 23262 12584
11382 17027 37314
16748 34774 18918
30031 31472 -2264
20312 23210 22346
31747 19013 29400
11068 17443 23670
825 35545 30283
22726 24056 11661
3836 3480 19951
32401 30924 -2088
16055 29870 -2702
30044 33056 -1390
34310 20030 25652
6044 37419 -2562
20456 11320 26827
15367 35244 35923
8423 31231 -3352
19774 2502 31274
18344 23912 -3245
8057 1281 -876
17853 32567 -1690
6595 29250 -1188
21531 6194 -3366
12534 13669 24713
22114 7973 10746
37214 29843 -706
4711 23815 -2448
29951 28330 -2317
22321 17177 25064
7393 8364 -685
28102 36337 18512
17331 8589 10636
11329 20750 -2409
29082 13960 -1035
17881 25449 -397
31689 22457 8811
508 31689 3922
4540 28984 1028
23359 24404 6742
10230 24289 -135
13043 11368 11344
9424 11650 5096
26937 26034 21936
34695 22387 12742
7857 15419 3074
16152 29325 -793
27066 27010 -2157
34198 24603 -1193
13952 13071 -1447
21351 18121 -2215
22555 27186 -3674
12884 30113 -2669
11703 164 -394
4822 15348 -1635
31263 29064 24144
2645 23120 -2267
12547 26186 -558
1043 12249 -988
21255 17769 -2980
35858 17380 -1149
1120 29744 -3304
9822 37162 -1715
15543 8042 8576
15830 16489 17971
10846 23013 22818
9158 20404 36049
15451 13363 -1946
3804 2804 14985
32684 1502 11500
19510 27789 -1071
5354 36650 -761
18938 18198 -4
5491 24629 -286
37352 2697 -1782
17487 14764 -1541
17917 34262 33150
17720 6371 -2566
15013 34743 19810
6289 15659 29940
32138 25065 13355
14156 30126 -3011
10566 29982 5302
21146 37232 -982
10629 30173 -388
620 32781 -149
15624 26470 -3025
31071 33975 -968
27540 32842 -2021
12114 16574 23460
18954 23364 27109
32900 9106 -125
23456 17754 33598
26229 20134 16409
6309 601 -3134
6286 2281 -3551
10109 2449 -842
10045 2716 14707
37244 20633 -3586
16349 10072 10815
1308 9503 -2181
24363 37427 -2464
35595 37390 -2031
30761 6162 -3596
30756 22375 30781
34440 16534 22547
2024 31167 28391
17998 22825 21810
9006 14200 11479
27810 15183 -3520
21162 20853 24489
25157 35809 -1953
6058 22401 23024
29110 20531 16791
22042 37400 -2328
29212 36771 -40
8598 36371 -2897
10771 19974 -1117
17508 35356 1808
27812 29772 7234
917 12490 -1084
29869 2454 -133
25500 34450 15897
37404 27509 5148
27571 35234 -2399
9844 15405 37428
29192 18989 -2011
36627 34274 18976
13857 32794 29171
24013 1592 -1534
16948 34566 36752
7700 11789 1177
26258 21968 27722
24650 9369 -918
12077 32543 -2136
7912 19135 -1841
20082 35611 36384
22150 9392 25054
13981 6963 -1245
34898 7418 22580
36172 18003 -569
1683 18427 -396
10495 15192 15297
31227 1815 -3471
21228 34654 -919
28093 3876 -2082
115 20782 -1952
17392 21224 24816
15047 23976 35428
7794 18837 23237
9073 22706 -3513
24346 11614 -997
27526 24587 22227
8639 2267 32789
12290 17498 6111
28253 6972 -2583
30334 9783 -3745
23138 19125 20667
5226 17063 -3607
1717 27787 27160
29968 17616 35231
33544 8505 13361
266 28003 -2687
12903 14884 -3683
20963 34008 -1772
25816 27364 -650
16130 3023 11759
17019 34703 2600
36726 4942 23124
3777 8873 20597
9635 23921 33121
23807 19910 6732
18789 21335 -399
37334 7611 -1956
14748 6918 -2472
11126 20355 32363
6421 33370 2903
5731 23693 30654
5654 30063 4978
22441 15331 -1167
14703 4328 27690
34322 22792 -2054
24790 7662 -3246
32746 25819 -2196
19970 415 -1438
17886 4725 -2426
4358 18009 -737
6662 1328 25144
13920 18340 23454
17707 188 27281
19868 35880 -513
36048 3047 31125
33138 14111 26805
23464 35293 19799
22803 18559 12659
2883 19697 -1953
30877 6512 -1467
36430 13 -1506
4215 15956 -1427
9898 10050 13291
12457 24826 -2112
31320 13235 -422
13789 32054 -1482
786 15919 4712
30121 17866 22335
15374 8065 -983
6872 13679 -1155
6840 36806 28629
23746 7236 26559
4581 21751 -2289
15765 11264 -3527
31969 21089 13380
29816 22080 -126
27500 23100 -3581
7497 21015 6117
36991 36240 10343
16883 7844 -2958
26839 1262 5519
28623 28172 -2188
12537 33902 14930
25988 18063 -689
28431 33298 20073
31649 29896 12298
27958 11360 18422
19998 24700 6483
3943 24220 8154
11770 27017 -1546
26387 22360 -50
26426 31964 26907
3927 33184 -441
4609 31192 4780
23282 7790 15980
13111 1017 10881
7331 12694 -2564
322 1203 3769
12346 14918 -1476
26162 21756 -2716
34636 30518 12941
36983 9629 3420
36880 17636 36495
7133 27351 -1469
11100 5210 -1875
437 22578 -777
18510 37496 -526
27127 36679 -2661
3062 8844 -1428
21180 25210 -919
712 29524 -3288
9664 30640 27198
17525 17386 16768
2775 14891 -616
597 16512 5879
11759 11653 -1248
20159 3075 -1566
4167 27442 -1383
17355 5048 4719
1730 264 4733
20884 35127 -3688
21419 3986 8526
36104 31854 -3314
1487 31701 3786
31312 28914 26321
17455 30661 9131
13590 29931 34104
24623 18752 -1370
28035 27136 -196
1180 30665 3306
37117 1482 5464
14128 6687 -1546
17143 27360 10645
27399 19623 -3283
12249 27577 -483
27077 26826 -3435
16874 20792 23715
14093 169 -2298
23991 9145 12458
24307 21493 20423
20127 24892 16108
27954 24416 -3144
13965 31582 -600
22416 31783 26025
18909 33136 10623
21568 19768 -124
2737 11481 36949
27828 19852 6668
3295 14241 -3011
11611 35423 36679
4854 5531 25284
29965 16459 14059
15029 37033 -3430
22340 34017 22400
16591 10155 -339
11395 31157 -2215
30889 27703 12396
36107 9867 5105
33339 3325 36505
3355 2347 -911
11408 11388 30248
16952 25783 6948
36255 3663 -3089
18821 30991 -2663
6978 1615 -2432
22911 7995 10985
12952 18149 -1988
20339 20615 6282
12907 29498 -837
17490 1559 -2650
26565 15158 22673
23813 5674 10407
12803 14293 16377
3808 4507 -3696
24867 9641 -2581
8626 25649 -2157
35398 16112 26586
17385 17587 16847
1391 16662 16114
11328 34485 -707
32578 19514 -2367
26109 30809 3949
26863 18915 -1980
1443 29904 -2325
12930 12302 23691
24728 33980 20258
23043 23188 -178
6622 13855 -2249
9467 10760 28966
21556 23417 2185
25515 36179 34907
7430 27137 -660
30289 6406 9966
11880 31013 -2552
28168 7172 35671
1798 34359 8300
3975 24774 -779
26497 29587 -3312
18020 27630 -493
6007 13396 6734
24526 8780 13802
904 35435 32133
2277 7811 -2141
25809 36143 -842
17527 27886 -2928
10742 13137 12585
30727 24359 15503
14700 35820 -2869
9813 15521 34863
24889 20423 18321
10112 2243 -1
25264 6296 -3284
13104 33097 7407
2652 26095 18165
36317 18103 -571
16301 12738 23944
26355 22407 32714
30897 21265 -2355
37353 5527 -2896
26400 33505 -2138
31897 967 18953
11959 27557 8415
29321 11278 -546
11184 26796 -415
8840 34791 12366
36410 12323 6014
2655 5578 10513
4943 6319 -2384
27009 32447 -1100
10029 19794 -379
20523 6431 6950
20233 36668 3083
11621 5130 14512
29423 11106 -414
22945 21898 -68
10538 3208 -3732
16991 8812 -1860
11431 33646 27177
18842 27944 -2205
9796 20424 18486
4618 10109 11555
11074 537 -1034
11239 8649 -1468
13126 4883 30958
2002 5359 24385
21346 5929 -1467
31546 9366 29219
7432 29345 -201
7774 35521 -1912
34926 14926 -553
20773 10483 -2669
35897 2594 25790
26531 9560 21629
17164 15574 -808
8715 32734 -1631
932 11637 6094
5019 33629 -2104
6407 6049 11154
17348 3266 -1733
4647 2084 26930
22684 36170 18938
33428 24835 -779
21747 25949 -1411
14018 27552 -1845
28476 8683 7320
31070 25466 -3171
18776 3151 30639
24241 34879 -1535
6614 24782 -2680
11635 18856 21471
37210 19548 -857
33096 18877 -2833
27577 2573 6885
30676 35303 -1744
23494 4189 12376
15893 35458 -792
33454 22476 15648
24023 12784 -895
34958 24292 30225
4495 27740 10116
22164 1066 -1499
2628 23010 -200
32004 8516 4573
33123 14026 31497
29098 28887 -1973
34297 3724 -3004
9438 31962 -1182
2936 8968 -126
7479 11751 32961
35538 14358 -3675
1741 22092 33692
22706 6972 -2365
9343 11167 -263
20324 20906 -2219
32365 35581 6569
8259 7769 14557
32548 27653 -3653
34417 4537 27128
10975 33766 -2501
15184 28784 -2528
8640 17805 8843
4268 21009 20040
7067 22660 25059
32499 11438 -437
29636 30752 16040
30630 30506 36435
6619 7483 -486
28416 2852 1225
26576 18440 -918
12332 26046 -1678
7670 4495 11092
24577 33437 20797
31434 16799 -3395
20766 10297 -415
16931 34279 -2501
6906 15095 -3313
3955 8550 19900
22721 7015 26747
5458 32354 23399
23227 19301 -3088
4121 28891 25170
18232 9146 31263
5727 10091 5529
3896 27027 -2466
25146 1471 -3277
29912 22800 -1729
27783 3167 -1364
34211 25455 -2532
24349 8663 -1103
10253 3685 -1260
24197 14378 -1416
2197 15630 -689
24069 12512 28016
14303 19142 3808
12899 35046 20783
15069 1258 36747
14140 11730 29472
32997 4809 16476
13910 22554 -2391
22432 28258 34010
642 26012 24638
8901 19877 27179
5204 22638 -2327
15797 33179 -94
18813 33407 6212
28242 33257 -3076
23414 21932 -2187
30179 24004 1736
4810 22599 9629
1514 13740 -1525
36242 10402 11324
5550 9508 -1572
4369 25598 21453
20799 9947 30528
17374 35286 -90
23639 16555 21447
27325 30459 -2172
12826 19683 -3494
23694 32610 -3541
23652 14106 -145
23125 33512 4481
18860 22219 -1480
1293 26290 -660
25837 22385 14982
31467 16446 -1956
11152 18991 6742
16526 3394 -240
11287 17222 -151
35016 5798 -1531
7652 4272 32172
34866 16735 11061
10366 21430 17824
19367 10770 30273
18475 6170 -1008
29050 37420 31900
34870 18115 27595
27865 30986 35950
28891 13505 13898
34008 17620 -326
22388 19188 1207
20613 7433 12251
17070 16354 13901
13333 31411 17908
14417 31323 35244
13489 34577 31315
13466 3659 -2966
11694 10023 33572
15540 33395 12662
3771 17847 31271
30401 18892 27947
34112 34261 -1936
32244 32763 -2245
12048 17330 -2697
15521 26613 -1282
35202 36069 -3101
17011 16996 -273
10173 8065 22882
6025 12613 7785
35920 11552 -1832
5091 18816 8146
21676 6901 -2945
13464 35181 3787
37053 7840 7770
19966 1063 -2228
3255 16290 23310
12439 24842 24529
18407 3059 -1133
27128 26341 14167
24096 32348 12825
24198 23528 -762
1321 26452 26424
34993 35887 -154
9165 11534 -3154
24764 2146 -1353
6235 17362 -3055
14940 22260 -3631
33507 34990 6572
7680 21758 -763
11256 16545 -116
28607 24340 -3492
25796 7923 -1513
27021 28723 -3337
22142 1486 2496
5484 18116 -447
9628 5114 26693
35946 12308 34107
16571 31032 23612
2327 8242 15027
11444 30648 9556
25469 25549 -3747
28265 5155 -1874
9081 36333 -2771
10895 2343 22788
19959 12578 28587
25318 16843 -2255
9196 11872 33103
22634 32420 -391
921 35255 17069
22095 30394 -75
5848 30973 -725
35922 3766 33779
21893 27878 -2618
24546 18382 -1230
7396 20483 -650
4969 21068 29402
5196 22863 -1063
28039 9622 -2364
35945 18127 -604
18839 27864 -2817
29996 36002 10917
21424 33552 -2314
23935 2013 -801
28135 185 -273
14637 5159 -2105
35418 23941 34731
21609 7677 10171
13237 4618 23073
29226 4557 -138
29655 12203 13280
21392 29725 -2298
7539 24970 -1228
9753 1872 -481
25118 13983 -2216
21323 25332 -2798
15059 21570 2276
27318 28120 -3728
31735 31731 8778
24915 20588 4878
11028 36983 10623
11630 35874 -138
35685 23205 16548
36958 30924 -1121
4431 12558 32262
31428 22036 -2212
24631 16628 6482
29664 15719 -3579
12121 15330 33969
11653 22285 409
20809 36705 27091
37199 5007 1402
9992 34012 -227
16205 8001 6683
29211 21154 9134
33439 15815 20785
22589 23292 -1778
8449 19999 -2226
16424 21935 8950
9955 24332 4780
20876 26430 25962
7788 13390 -1615
29946 34654 -1291
23119 7218 -698
4786 10909 33328
17149 5306 -1057
16318 28888 11396
35841 24582 -169
13474 29717 30558
12412 18905 25537
1186 20130 -1109
35869 22294 -1924
6091 34334 -1538
15002 10761 -1125
35465 32126 -3324
15257 33848 11836
7145 29822 5295
25587 20553 -3030
26603 26636 31877
11175 1274 31612
34103 27793 -410
8707 16789 -2053
12466 15055 13347
19037 29009 20323
29543 1528 3536
2572 33589 36150
31302 1207 -2410
25224 674 24643
19066 1243 -2995
14529 26998 2764
11969 7826 27062
27635 11426 24844
12408 32169 20794
7173 31004 -2756
7230 29660 -3683
35170 23765 31669
36040 36249 -3612
24607 8499 -3409
9849 5829 1326
17256 27425 -2805
4544 5995 -1623
2767 20926 -3219
9192 21891 -2279
12738 21836 2162
24114 25026 11628
12051 26931 31800
25784 32455 -3340
15193 27625 33659
18038 29120 5394
22202 5553 -11
4 31927 25206
36149 12219 6390
34775 15102 28051
27403 9901 15558
9702 34455 -2262
23823 32098 -692
11835 30455 -940
6934 24160 -2376
20274 22737 -2959
28422 24522 21280
12952 13736 -128
25604 26531 -2393
8795 23061 -2322
30245 20717 -629
244 7542 385
8778 15582 -1762
11660 22348 13294
10192 3763 28061
23634 24976 -1786
36617 32566 22448
18286 2353 3300
6078 32186 -1397
17239 8253 -1396
3069 11578 -1476
7904 9393 -3669
8519 13378 -667
29871 15837 13097
7923 1001 -2974
18076 28091 -366
11596 23521 33831
15574 6675 33658
20993 20562 -2474
14080 4595 12951
17291 18406 4935
7081 21708 -428
18874 14322 -712
7587 34100 -749
7070 19996 21141
8302 27666 -2963
13638 35775 -3484
28416 33381 1639
20769 3991 -2312
9317 3180 25802
1936 29683 -393
30913 37425 19684
18485 10083 -2706
3539 21242 33921
16417 5692 -2477
13344 28649 13332
3564 13719 -229
36037 17126 12489
27990 6229 32921
29531 1688 -2129
17020 16972 -1582
33647 33078 18647
33924 15071 -184
32709 8674 30855
7303 7225 -1837
20472 25879 17538
14121 4451 1602
36663 36205 -297
25560 8777 18867
25742 15914 -984
3795 23177 -1170
23761 8519 7343
11658 6766 -3067
34794 2098 -2529
15340 3342 -2669
4514 9519 -1847
32941 8826 -2501
13665 32359 -3356
26965 8293 8879
24293 13883 -3277
13376 10961 16729
26919 35668 23806
1946 11461 14429
30582 26272 -3113
16793 16203 -658
2605 10645 33165
13612 5466 -3726
31910 36721 12964
28270 5920 -154
14771 34521 7396
9290 4681 29994
33727 16207 12997
10515 23095 -2196
5351 7711 -988
34842 11420 -1412
8601 15211 6716
32017 36003 9115
2248 19522 28241
27743 33040 -1253
37099 16134 -1719
8958 25300 -512
31259 18529 -2
28874 23763 22044
11948 19905 30936
32990 10870 -943
25270 17879 -268
31654 7073 -2536
30955 2555 20938
17210 24372 1330
21928 36090 -3186
33610 30240 26610
24730 33745 12783
22631 30547 3111
841 7327 23472
23081 34129 18724
27263 4853 22024
6177 643 24803
24046 10575 23515
30791 29771 -3
35610 25182 -3146
25629 17206 11989
14978 6522 20645
14740 36146 -1795
36815 20599 -3729
21017 11440 -2753
30962 23452 2821
29081 14642 31937
36091 6767 1383
25353 24564 -887
35791 30668 -682
8028 12678 -3394
14001 5818 -1356
36999 27201 -2279
24358 22612 11153
3394 1627 -2208
11386 900 37387
4740 27535 -1405
11212 9770 14658
34869 20925 16477
31309 30760 -1258
4987 36181 718
25000 2478 -549
10265 11742 33711
34863 21785 26720
30573 14903 1795
20676 16045 -3372
3517 8125 -2816
14995 24882 -3020
25412 4422 -940
32643 8829 -2103
11736 32178 37283
7465 32101 12914
288 20776 -674
21902 28530 24874
26699 14600 2411
16830 1761 30727
16503 23408 10000
19685 33784 31330
23203 26144 2239
35327 34158 -180
20842 8566 24367
3130 27185 -763
21431 21281 26965
20239 1198 -1339
36590 25007 25408
10140 29935 -1993
6915 652 -3338
13127 16139 33427
17845 20932 -3575
546 36995 -1412
5430 19073 -1326
27566 30708 13248
16736 17038 555
25420 3014 18622
14919 34980 -1056
26822 30627 -1518
33578 23870 32241
1208 28615 19612
36514 22223 -3206
4625 21321 -1067
26846 27885 19665
71 4983 -2563
13954 25183 2404
11571 17234 31586
21478 5600 -359
15843 33142 -1480
28448 25938 -1135
1814 13940 20041
37283 12436 -976
34827 14257 30989
36796 124 -3322
28134 22043 -3407
34147 19883 34228
11694 25042 24892
1022 35712 -132
31786 19790 -2981
3813 33943 23795
28082 23541 -2330
8891 14617 -784
3663 19303 27142
5938 33036 16035
8322 28771 -878
34381 36482 -900
21489 4094 -453
2782 6756 -1367
25414 22691 -3377
26999 36998 35310
26047 33522 279
4705 2201 -1371
10054 8513 -3257
24273 19746 27042
1469 17682 -2821
26700 27559 -96
26963 7342 32529
32126 36869 34270
18676 5860 -3231
21072 13666 -1710
2066 34978 11306
14607 31540 32992
19253 20640 32888
17026 32983 -1875
32211 14001 12809
20667 7082 33795
34145 16890 -3183
11387 6350 -2062
3622 3852 14538
34547 25323 -2738
16385 560 -2027
1647 10340 29453
7074 29188 -2331
37361 36581 35632
35733 31658 -2854
36235 14623 -295
9025 11152 25158
13394 30150 10913
9951 15837 -884
2586 5597 -3064
22077 35002 -1530
32055 37211 9847
5652 35844 12860
11328 12214 7641
15761 2565 -1904
29628 16025 25530
1360 16163 37483
16232 35677 -2552
8706 26494 8478
36860 6696 24973
20926 15248 -2224
22205 15684 32122
5984 30781 -3591
23272 24500 -786
2222 27079 -1280
2312 24851 -2108
8396 13437 36157
4546 15003 -1344
34783 4633 -396
11872 8304 18756
12825 35393 -971
9754 23195 -3413
13631 12284 -2498
33688 35946 -2891
37329 14357 -1627
26884 11414 -2909
12269 8696 -1293
13476 16915 -1712
19856 4560 -2256
15668 12945 21985
6348 22446 36348
14218 20255 22668
17326 30909 -321
3616 843 -3558
11710 27161 -3080
6973 6559 -1094
1018 21735 -1008
11835 33082 4926
27153 7392 34497
23851 35376 11414
14205 31787 -800
15207 3976 -2656
25285 3556 18281
36212 30177 19308
36514 26331 -3173
31647 35591 -1329
33479 14606 -3595
31059 24900 2867
22413 6088 -1835
6234 36920 -3581
37472 34165 -32
28121 1598 26416
31311 766 22472
8106 251 29544
25820 29081 -3446
1179 10709 13289
11983 35981 6572
23860 30969 -2399
17174 36192 -3185
24927 16205 -2730
9916 7898 -814
9736 10354 -2426
28637 25833 -3444
5968 26836 -1325
35396 25264 -383
23257 21287 -943
122 33352 5634
34611 29495 -2435
14893 32014 5837
8525 20097 6413
21350 10270 9267
20630 26422 -2000
9807 21336 -3023
9842 24397 -2751
6420 28291 -1170
11146 17303 25140
12412 8555 33905
24558 3697 24654
13416 26053 -2123
26679 10240 22357
19657 18749 -2440
7046 34120 8269
4503 3334 -523
32853 15446 20026
36240 6843 6547
23656 17195 37420
13904 21112 14854
8074 37054 24711
27879 17707 -3436
24748 1041 21139
14814 31945 31906
29275 34472 36879
27359 14455 -1550
19492 27993 -3236
21617 15356 32526
35200 743 -109
7753 15981 -1505
320 23495 -3566
31914 16364 5532
15641 30693 -1849
29980 6087 35518
36654 25079 17961
4639 13012 -2512
15297 19150 -38
20336 30951 13941
14913 27251 -2125
32910 36389 23944
34970 7735 31060
15340 24307 12751
14003 33298 -1393
26488 25707 -301
34194 29319 13229
23935 10396 -1301
8385 28316 -2445
4711 8872 -108
23937 4501 35540
18855 4738 35651
8394 13465 -34
16867 12859 3742
3958 19310 9961
11741 13717 6383
744 13004 -3442
949 9941 -3175
1491 14879 14287
1727 3439 34512
10765 34204 -1590
10360 9398 -1309
3764 16495 10209
10683 16072 23389
7053 9948 -2594
9414 8670 -1262
18058 2965 35799
17419 26277 -1131
33470 31916 9350
23253 24694 -3392
14040 31158 -1467
16160 36793 3139
1209 21976 12595
3301 22997 6512
1158 16713 -2314
12102 31208 -1991
24726 10188 29247
8459 1485 -1258
18969 26896 -1733
25225 9393 10562
21678 17841 11009
8768 30117 -1658
17793 31938 -432
30675 5781 -1337
18184 957 37077
2910 15186 -3401
4845 1976 4436
30564 31258 -2856
7313 3698 -1213
14067 1648 30373
17261 33598 24596
26253 31565 25414
28176 3253 -3539
36714 24495 6392
34067 28917 10184
10939 7706 -1884
5980 14115 13619
27124 14521 -3529
18331 19511 14410
20078 431 32170
27379 5009 -866
37125 2282 30160
29994 6083 23716
4892 1755 -2909
36059 35607 -3457
7676 19579 -2784
33729 2929 23253
23423 14397 8369
4605 28408 -2494
13796 1619 -472
30663 25432 -3247
33761 29696 20728
10394 16125 28120
4897 28406 -3165
17228 21385 27983
18667 33955 16541
500 3428 13307
22998 17954 11453
2243 6575 -1670
23711 20821 10158
30364 36403 -341
2412 339 -3223
8885 9577 13371
19634 2720 22577
22801 26661 -278
35035 30584 36757
28079 34739 1072
13940 24525 16092
13377 28645 8530
20932 15015 4666
16303 30096 -3185
25001 9364 32779
15369 12784 14063
11812 18664 35044
14137 13845 -1452
2436 24277 419
33171 595 -2506
24617 5209 34104
16408 6587 23797
14777 12730 31027
8471 24174 -1377
24621 14892 24812
4001 34418 8654
30615 30219 -371
9912 33327 -2531
16001 20521 -1117
34546 21634 11301
31325 28726 28568
13581 29113 28615
23284 10569 -2179
30317 16624 28210
20481 6728 -736
7114 18996 30560
37272 33434 25872
8509 29871 24294
7230 20205 37135
21485 35868 13848
26000 1245 -2513
34558 21157 22485
13969 36992 23671
30171 26665 19486
18295 1733 -2854
3505 32748 33083
11066 28338 36323
35580 6651 5214
4225 34692 -469
14052 1487 11048
18818 5862 27068
16783 21643 8656
9282 7712 19674
12461 2192 29455
23813 15377 1815
11515 17242 14710
11201 14443 29126
28537 28870 21834
21807 17651 -3083
13446 2523 3541
24144 20280 26758
37287 35098 -443
15229 10158 24688
9603 7954 1161
5218 12063 13044
20228 30419 -1602
13940 11858 17475
18578 14911 15481
1454 27690 37237
5938 5372 36919
27681 19496 -1255
16706 28727 -3177
22041 12206 -1514
14600 34378 -2919
35936 27512 -1427
25452 26792 11330
29894 20929 11659
7489 27247 908
6435 19854 12006
33795 19450 -2448
6137 17789 -2754
37213 20356 -214
8280 25916 10793
33053 3916 -2981
18574 5853 16650
9915 11155 -2982
4905 26754 15542
26195 18908 18456
22574 13711 -905
15943 21889 -3392
36560 33025 32335
36760 12694 11730
14915 36837 -1594
6827 28766 13905
23728 20280 16934
35877 6050 8230
20819 26267 23994
32861 23588 -3427
10644 3474 -2799
667 7275 16040
17749 17970 -1136
6265 25070 15912
32655 7347 -2846
5105 36816 -1648
20539 36208 -1093
6333 28212 -955
21014 25958 -1426
10394 23914 18723
17095 23884 -1004
10089 20216 865
32750 31940 -2962
35428 5206 18540
25586 28615 446
30509 20681 -3148
37400 35909 34486
12747 27970 -1566
22746 2913 -2055
14452 18772 -1840
33376 23670 -11
18489 533 12470
6000 30464 22258
31289 19653 -1776
6395 23377 15308
37150 26663 30769
35846 827 35077
29856 9874 -1054
20344 8874 28569
23148 36018 36863
24303 5686 -3456
6028 2012 -3199
2499 15813 -1564
9445 6761 -1784
16132 14023 -2555
15053 19173 -1820
35659 7631 13836
6848 12194 -1620
22602 30626 8350
13284 12017 4460
11599 5644 26552
10230 31835 4526
33547 36941 19072
2630 900 154
33808 28214 -399
27086 2567 26887
13642 11120 -941
28322 5884 8311
8450 37139 -2024
19651 16919 15150
4206 8265 12829
3736 14306 -2565
31107 8463 -1879
24718 7538 17478
983 36179 3550
31303 28383 -3262
30061 31773 17617
36829 30267 18581
11834 35656 10659
29162 8210 20946
19866 26796 12054
22964 31 -671
25928 13591 13974
15770 24464 -106
495 19748 -2683
28718 14785 -2708
21064 17351 2728
31494 10868 -507
34016 35109 -838
28510 17726 -780
18777 13716 26085
17951 11876 -1091
9387 20449 -2866
28913 4225 -358
21372 3226 -196
33836 29893 -964
27347 16978 11520
30426 25891 4600
32285 31155 -244
4408 9142 36116
35217 26258 35300
4132 29901 32136
14460 9259 -2925
2052 16071 -1584
31569 13167 -3470
1364 29473 8380
9622 27770 24992
17037 14339 7701
23247 25350 14494
36176 759 -1060
36224 21123 -1547
23277 3509 6870
4124 26513 -681
16789 27241 -604
18996 16914 24830
12877 25635 36389
5376 21338 31490
29343 25873 4461
10917 27605 -1436
16508 26270 25717
3945 34044 -2652
7587 9573 -171
20339 7398 -1953
22194 19554 -2065
1185 35339 24633
26765 25351 -229
11660 5954 -1474
14509 31629 17722
554 35742 -644
15999 24505 -1258
19465 10166 10636
13401 12566 3770
24767 14960 -3475
34752 17769 -3452
9949 36438 -3489
14727 14360 -2347
7852 8609 14275
7303 20780 -1280
11004 4223 -455
15521 11459 -1221
8847 14383 19862
19959 7921 3445
29928 2420 -848
18231 21184 -936
31440 16055 -2222
1892 12534 22097
24538 10388 8034
2979 10493 10090
11066 12404 -3721
14524 530 16925
31315 28616 22451
28228 21043 30785
16999 17705 28681
5660 5241 34943
24433 25495 -324
34349 17489 -1080
15684 29296 -2584
16255 9326 19996
31469 34341 502
21881 26061 16884
17567 4748 36437
11502 37383 1775
12874 34701 26775
1709 32315 -572
4754 16641 31787
35084 25443 29275
34433 4251 -1620
9290 14991 -3403
26022 24339 11999
15076 36702 7642
33877 880 -3313
36045 22763 -1544
10431 25455 13552
11566 26461 -2623
36836 26656 34792
15162 12246 25657
7222 23102 37281
32732 4209 -3362
22934 30322 22423
9665 34680 -691
23368 25208 36897
19552 7689 18277
8676 12016 22114
196 16549 36257
35312 29640 -2541
8154 37137 5463
33457 20703 29575
34537 21809 3056
10709 31913 23253
22263 16819 17214
1324 27713 -2620
36552 34812 21189
20813 6618 35617
3243 20084 9316
28703 34288 31336
2599 24587 8081
11212 15929 32705
1179 2653 4269
17820 18077 -675
2728 29784 -2611
32020 27400 -3718
19199 22789 2938
6896 32669 -2978
5164 2084 11437
798 762 31552
23333 2150 23037
29198 461 352
24726 33377 22624
35275 12265 29308
19978 27094 24548
3177 533 -39
28825 28634 -3545
32354 35075 20333
24700 32436 -3740
36698 33519 -523
22587 2769 2354
33213 7155 70
13034 29548 -1873
19465 9956 -437
14921 21500 -2632
18414 12484 -643
12705 28544 1628
35398 14867 -2013
34287 34580 17799
9498 3601 -2732
36518 17371 18496
32906 8091 18749
2126 14342 -3463
4674 31063 -3194
16168 26971 -3640
6887 18194 -3359
15632 7317 3113
22721 26565 -633
12785 25098 -3640
29224 28106 -1702
3479 36146 3654
20794 28441 -719
15275 24586 19227
7990 33487 19778
8070 15187 -1455
26080 27153 -698
22808 25740 36579
24765 9011 30251
16872 7504 -1046
18932 31807 26012
20190 19118 -555
20817 19248 18337
2920 34991 -3279
2172 32899 28216
13574 37418 9055
6959 33961 -1541
27616 8724 -1553
32830 25815 9284
28488 26754 -1521
35990 8880 -3724
27196 28222 28338
7601 26573 -3351
22224 11885 2610
20678 7818 -3457
18026 12004 -1589
28123 24634 -1735
11335 25695 -1186
16369 28393 11170
31825 10254 -3305
32895 1380 32876
5716 3761 22931
26368 7283 -2026
14859 9884 -308
5498 33151 -628
24696 13043 943
32737 25518 21350
29783 26309 -2562
33136 33449 1216
5132 32473 16078
21553 26235 24717
10877 26202 24602
16972 24067 3264
29989 11404 -674
35891 30047 12317
33999 18194 32665
17120 19554 -1704
32310 24521 -2859
13513 28915 -3089
10344 5908 5423
66 24145 12288
24841 25963 2457
30001 29275 -780
18180 14648 -2361
26972 5239 -1145
21884 15564 18542
8936 26086 30105
9077 30904 -2904
11510 14567 19323
33096 20045 -1699
5297 10028 35583
1495 33776 -3419
7227 9953 -1995
8429 9432 -2984
8306 32937 -1808
29525 7830 6228
9087 854 10104
34127 8239 -2340
23893 15444 18120
18597 24843 32237
32629 7742 21243
30689 17863 -1681
9364 36118 16672
36688 26064 -3743
2016 24234 -2919
20250 11489 33791
4658 20627 -645
10932 27859 -843
22021 11380 -788
12952 36631 -2827
8639 27267 20211
17200 12989 -1232
17320 22717 -1139
27373 15598 -3636
20534 2406 -1627
36773 37353 -679
27484 13184 18534
6378 4512 -1507
10437 1192 -2076
19099 20633 22381
20488 18921 -3696
31378 19476 -1598
33532 1480 -3297
26053 22110 37292
18349 32583 36372
17573 26798 -954
22897 22347 -3229
25118 35770 -1527
27990 33333 15845
5964 35151 28115
22553 36512 -2040
22926 22714 -2080
1126 17304 -1131
27856 15405 -2604
30161 11986 22705
13475 1629 6704
26870 29787 7885
19630 31891 -242
15365 28857 -1064
21002 24764 -554
36805 4515 12670
9137 31593 -2469
32389 6269 6219
21694 19213 7264
2046 34965 -1794
33398 12468 10486
26960 35811 21884
17865 19968 -1671
2871 34137 -2369
6106 4681 -1855
34167 8311 23207
21436 19492 27577
865 13597 5513
23078 31614 -1752
31825 6780 -1800
27405 10580 4574
23030 27333 8396
29879 22839 -24
10038 12020 -3081
275 3122 11522
27951 12260 36294
4398 36378 9118
31151 26581 4359
2406 31112 -124
30365 15363 18198
34798 12509 24736
15373 29089 28291
23853 30631 5050
9822 15485 -1242
2522 1529 19691
23207 17901 -1438
36490 17078 -1560
21006 25684 20836
28628 1969 -2077
4779 26280 -52
30121 7983 16749
5364 33209 23135
2072 5828 7417
27440 13199 -1164
1305 24269 36145
30166 5652 -1859
7512 15713 11608
16348 4931 -3287
18609 30451 33573
8551 30684 -74
8987 29257 -2607
13935 19856 -3334
27233 8647 -1539
25062 3369 -2613
10814 31987 35271
1477 21665 -1151
28429 27718 16395
16398 30951 2255
30809 26796 -1311
10943 324 -2152
31209 8223 -404
24890 10061 -3730
14376 17499 -1120
30725 33337 1681
26597 25706 20168
15201 13564 -783
17163 26000 33195
26845 31279 -946
2449 21896 2184
18081 20817 28773
21241 28231 -3670
23947 24745 -2039
15917 1557 16899
10471 9952 -1763
13802 14637 34699
2473 28047 27812
15075 32017 32391
18192 28889 -958
26914 686 -2767
9669 643 -1565
33054 1822 2733
10898 9078 27606
30474 33171 9703
27671 23204 -3063
24709 2689 -3183
13744 15791 -595
23346 29613 -306
3094 12428 28411
13637 9187 14977
3253 34002 1625
25622 7830 19591
31842 18200 34260
9725 22914 32545
32349 13697 -2962
26652 26394 -186
24543 29568 -3714
20281 32321 35780
27564 35866 32478
28872 26957 3860
26274 31752 0
1583 8567 24684
17745 312 -872
26081 4060 -3446
33510 10337 -2941
21503 22788 -936
9269 35430 -3594
27840 17412 10969
27825 14683 -2092
35228 29302 18074
24723 22868 -2045
8674 11270 -2576
3652 33794 -3195
27776 33991 -2065
29212 18496 37036
13863 31226 36118
15383 35357 30874
4619 30110 29269
4338 24161 33252
34427 2513 27896
11181 27130 -1804
26568 36329 -845
10345 27834 10719
1671 7121 17475
17584 10504 35385
18321 11967 36669
8013 14124 6584
9686 21106 -1428
1873 300 11214
29162 19285 8830
9622 25811 7357
4134 23701 620
36424 23799 26546
35055 3571 30981
25268 27867 -3136
22820 13801 -2015
36974 1347 -1301
20384 10907 -3579
14108 14297 6105
451 8165 34786
1270 11823 29696
3139 5083 -2292
17516 23125 12728
16060 22027 -1530
29477 6364 24270
69 34639 18481
11498 11606 5950
17376 15017 5288
5193 6343 -9
14652 3064 8479
26758 26648 -151
9904 23219 15471
2800 27577 13980
35561 21655 27866
18520 16801 -3228
18913 9097 -1089
423 11321 -3299
28621 33789 6105
12175 8516 16509
15448 13374 21114
4185 14185 14220
29477 785 -742
5810 7852 -746
19022 25218 -2272
7239 28789 -2495
36376 22788 12524
3071 19548 1349
36630 34252 25974
26072 32595 -1043
13825 24713 -477
19454 20937 4975
23044 34493 1712
16892 7327 -3042
9393 28916 -464
9069 2474 12063
23944 16650 -3543
29078 16421 15602
4290 34329 -2714
11307 8264 -2166
3213 25741 24942
29085 32623 -1689
21706 13934 14601
27951 3729 9796
36737 9522 14249
33914 1784 19025
30237 7073 -1390
37477 28348 10155
17018 7911 25887
1974 1311 -1791
26971 9247 -80
26386 265 -1231
26969 1949 -2834
11453 28996 -564
18089 31344 15774
10889 22640 -442
33485 7940 29201
34878 9872 -1868
31165 31032 -815
8151 22484 -227
22235 8917 -1008
9672 20100 6448
10331 28561 25309
34522 35249 9409
29531 31806 -2341
26122 8784 10661
16717 15038 -3380
6568 25981 13595
30878 26352 9878
19333 9567 -2411
14324 11698 3481
11591 22451 13541
27711 932 6604
26984 22143 -2345
5654 8662 -1469
17134 5334 -1642
26460 422 20507
26544 20257 24248
177 17681 935
13761 14445 1083
29783 5624 18833
17412 16287 -2800
24572 5063 -2107
355 18730 3538
1149 14924 32628
18284 8252 3669
6237 13837 5962
7652 10304 -587
29117 18111 -2778
9388 13103 10136
33050 32068 11541
5435 13923 -1094
16842 17348 12316
2741 12813 4211
33056 3783 20857
34917 34302 28387
11865 14435 -98
18139 34151 19339
19382 25323 22471
16376 31286 1905
32629 8259 2803
6599 28556 27690
36090 20688 -2828
5003 10014 23411
15787 3070 14555
5713 31753 -51
22873 32810 6494
7651 7812 32984
18759 21891 19407
22111 27701 1600
26840 21855 -1388
19511 995 -435
12885 27784 -2048
12752 12938 219
14439 11260 -3283
13962 37253 -3350
24464 18551 30388
13040 26107 3029
12298 34589 -1191
8769 27250 -2374
30842 29941 -1140
37478 104 3031
6199 15627 12190
9244 8423 -3015
37397 24299 -1072
30049 26683 20180
19877 17008 -1173
22136 7958 20136
5451 259 -1307
28875 8049 5236
14528 2530 31331
20363 4978 -263
32184 5313 -2414
13418 17819 -2631
482 3332 -2539
12960 19934 15385
14898 23119 -755
16515 17381 36769
19959 12516 18770
34204 23421 -999
13783 11341 8703
9226 3933 -2234
18973 27356 -376
7615 736 11089
2196 34443 13897
18085 24887 13671
25643 4426 24283
3440 22167 4260
997 24255 -2182
36953 8931 10318
23411 32692 -3521
35619 16565 11110
36547 31542 8373
15567 36867 -1794
13726 26575 21879
14032 19778 24490
11291 6517 -3161
7594 30970 21045
8606 18980 8750
27700 4427 2403
12752 35636 -2915
31875 2811 -2664
574 21790 18867
24346 35412 22734
33053 23061 11589
33838 13560 34826
10373 9213 22252
5789 28407 13274
6570 11678 24490
7984 9593 31893
7292 17085 -1391
17875 23907 -1961
13536 12269 35485
31514 33196 -802
35788 1665 29973
3795 17482 30343
697 28046 -3493
5414 230 2106
9969 1331 -5
26710 27455 4901
9190 11789 28168
32560 34331 -2259
36361 5044 -2441
8671 11131 8296
9360 12589 9627
20709 30741 288
21509 31451 26329
37158 22185 -233
22582 16296 -3739
9007 13455 10180
11917 13685 -914
12640 45 -485
20739 20141 4814
19783 25405 -1897
31850 7967 13870
2020 2690 -2362
37362 28009 24425
28783 14521 10137
1576 5967 26395
5881 17674 26279
32569 49 -2167
29304 17841 5920
11124 30679 -3730
17452 35736 21884
10018 29340 3792
22484 9078 26889
15450 1616 -1442
30130 1795 -2338
13851 23553 -400
25329 13888 -1680
1934 11344 24353
25233 23111 32896
37206 7327 1359
31477 37267 -117
1383 33089 -2705
23627 13317 -943
4195 10580 -805
36723 15941 34415
6066 27216 16998
33729 3455 -2938
10307 8841 -1640
16675 27362 -368
17149 31596 -2342
34253 18507 -1671
19350 36666 -1189
30460 34707 -3511
28378 28048 -2457
25518 16722 -3727
25385 25468 -1004
5670 27864 -3016
17369 28382 -2366
28216 34520 11233
24936 19744 26409
23470 12166 -3102
25238 7629 -1928
5862 1374 33537
32795 2354 -2707
28925 10686 8627
6382 14274 -3353
8854 8775 30107
29863 34984 -3111
2064 5463 -2251
33018 14442 -504
359 27608 -2609
108 24919 -2310
5096 12360 979
29993 18159 -599
15652 7685 13971
13768 11370 -725
25025 24329 4688
17164 14277 16788
4078 11286 -551
25087 12664 -318
7356 36977 3773
37433 15765 14434
15659 13655 -1244
10128 19914 -2712
28764 30503 18390
11862 776 -3488
21438 31546 -3356
2641 32422 7953
35517 10856 37110
23758 36252 -2367
30897 8814 5747
35957 32179 21581
23554 15397 -1718
18357 36945 21259
5103 12786 1993
11777 11948 24995
34608 10918 -3688
35896 7761 -1922
25743 16114 -1576
24999 3370 4952
30566 31794 -3649
26436 12703 -3653
23981 7557 28696
28686 17035 -27
18243 4851 -2522
11001 557 -2175
25246 4658 4313
29979 7769 -3531
3518 27804 15165
21720 4814 -736
15538 37187 -1378
12160 9857 -1167
750 22604 -3414
19001 12073 19589
17078 15922 -1447
33702 8988 34633
26616 22765 -2939
11248 6478 -2944
12422 12349 -2585
32235 32889 -3616
9698 24231 -1972
1601 2736 7594
34757 22083 16094
24318 19215 -2214
18504 12001 -1329
8520 37406 8840
14088 12812 24912
7839 21070 -2763
22626 36722 -630
12143 19327 13515
11229 25230 11126
11059 9825 -3043
26761 407 25189
17256 31447 9568
33627 36597 -3514
13962 22130 14604
24602 1591 -3634
33550 22299 -3457
896 12623 9372
27847 11288 -1726
24126 20583 -1460
8684 23565 29107
17686 35993 5111
22315 25859 -1230
2003 20435 32505
15274 12208 -3702
20296 6112 18838
16816 26589 18612
27265 20937 -1415
36861 36096 10390
11228 4316 -3433
34290 34055 -1205
17021 17044 -2742
7745 23226 -1917
138 21127 5608
8239 22015 31338
14659 24152 3830
32465 22959 -1285
28673 30730 -2982
7053 6422 -481
13207 8132 23534
35249 8926 20157
6653 27784 16630
28945 18590 -1561
11345 25723 31645
33024 7054 16974
27385 8178 -3667
14242 13564 25447
20714 24635 9228
10367 19138 8633
9183 4083 16546
16754 26102 32280
14505 19293 33692
24243 18472 -184
21656 7950 -473
828 13544 -1199
11170 25386 -1191
7919 17329 3527
4412 6639 27308
15892 9495 -2173
2260 6357 30497
34161 32313 27713
24749 2697 5564
18659 35958 8108
31718 34469 32566
29246 2784 -3607
28375 26945 24475
9572 449 -2673
12068 15719 32351
15968 1749 -1300
15062 2758 1118
32851 13037 6281
11173 25824 23263
33661 19852 28983
8742 8569 615
35347 2507 30963
7377 3585 -3492
18549 7352 -1533
3561 24466 2658
9335 34311 14910
30967 33962 -2004
33284 32876 -2820
24060 34363 8482
554 26712 36804
35384 18251 -2644
33108 27482 -1582
37452 22597 21558
14670 37428 -3681
35036 4785 27797
12286 20079 -2600
28240 31420 -2816
19962 1157 23884
17013 28438 10014
33734 26619 255
19684 31944 36723
13503 8689 308
36760 1707 -2794
6068 7836 -1388
17444 14847 25444
25843 8241 8802
24392 17230 34975
32072 1267 10309
13364 11369 -2281
26304 17293 36781
3584 35346 -766
10507 35269 -3710
31718 26646 -2604
14793 5294 -729
7014 18362 -515
18603 21095 5177
9862 27541 31469
21353 17536 -2691
15099 2232 4038
13451 14699 -2658
7468 22817 35207
5737 11462 -435
285 1309 15532
15379 24835 28213
19430 8917 33248
13853 52 10665
10258 35076 35082
7617 24939 9267
36711 36681 -1453
36110 26916 34658
23183 29717 24365
31778 20079 6310
27857 19133 1662
10318 7150 1808
25788 27539 -1254
35486 26759 -2426
1823 23498 -1830
28330 9493 26600
27742 16235 -74
36940 26968 -3564
15040 27849 -1794
1000 16825 28977
36924 35127 16379
20546 4799 35725
23811 12529 32537
20329 21100 7286
15540 3622 19149
23339 25616 -3209
18332 2406 -1699
17646 4348 35175
15048 990 18756
10062 23173 -2213
11536 29234 -3594
4857 30659 19747
36116 4304 29524
18102 24648 -3329
19805 31839 -3156
26237 7341 30774
2633 23342 30984
27081 280 9338
18549 24566 26313
14454 7934 -675
2239 7142 17501
37458 2445 8446
35485 12605 14173
8853 23198 -2553
7097 22777 20325
13394 21682 -3531
34450 29497 358
37039 26960 18613
28275 36323 5244
33819 17226 -2101
23137 1901 23316
4392 21534 9841
31971 25734 79
35065 13723 24845
26211 18671 1498
28821 2732 8763
23699 13048 15469
22519 31612 -3533
11551 31593 33906
17940 12333 -2885
37293 18837 -1834
35051 16572 -582
342 33344 -1416
1768 9220 -2604
4574 16312 21809
4824 14030 -2651
23404 1488 5933
37025 35760 4308
34869 19538 -3232
12935 13053 35962
4199 23215 -2456
17214 6755 -3691
29080 6441 -3126
17504 31179 -2571
25953 10862 -2414
15862 11395 -2830
32461 22720 27629
22520 23500 -1827
13464 36879 31639
16016 9788 -1978
6341 7256 16401
31270 26196 -700
29412 20252 -1798
1991 21074 -377
28435 31583 -1995
21283 17529 -2730
1700 23590 -1893
5122 17780 23478
12241 29006 -3352
18126 3159 31876
7151 26914 21857
13578 6793 -3431
16909 16447 23297
8304 14998 19804
7326 8507 35524
22494 33430 -1871
13652 31942 6498
9051 27971 -2598
21403 32435 31790
17690 32957 -3157
28451 7673 -3213
14589 3902 -1774
4424 5633 -2995
17299 5266 2679
5666 15704 28776
10443 33542 30622
13651 1398 14425
19920 1106 -3630
31849 31962 21683
15544 24193 21979
7260 761 -2134
14764 22551 26903
7142 17678 -3723
12967 14702 -681
28633 36126 -703
3038 29194 -1819
11601 6360 4374
27645 30396 -2071
3875 36111 -1299
23212 19678 17806
33847 24712 34826
1669 26225 24910
5617 35894 35654
22693 28655 -1826
20324 17369 -3099
34117 7453 -998
23538 14934 8191
3221 33387 -1356
4745 14504 -473
22331 7719 27314
31151 5365 -722
33308 29156 36944
13200 14723 28531
27344 3944 -3415
20726 20774 -2431
35286 3809 33077
33188 22944 -756
4741 13520 -271
29778 7069 28356
4992 27195 -2441
10814 5451 21954
11960 5251 27608
17986 36637 11239
7320 24235 -1471
4739 34945 30846
17354 23720 26541
23654 17944 27008
29977 3088 35148
9412 2843 -910
5172 9356 484
14909 13800 25033
6445 12691 -221
37187 20261 35616
29556 5560 -734
36108 37480 -2055
32578 36717 -2091
15822 21095 -1310
21317 5007 13131
1306 21381 14214
29548 8748 10843
3980 25998 3652
3703 17051 -2134
31856 12347 27256
9305 12563 -554
12629 18015 35458
33045 20232 -213
32929 37287 -843
26870 13978 -428
25746 33123 982
9215 35039 -1972
37418 26858 20230
34144 24792 470
28999 33056 19199
30717 18243 21552
6986 20244 -2330
16253 36978 34364
28640 19057 18859
536 4894 28224
30655 12468 -3244
22907 17152 -3428
15425 36171 -137
25188 8507 4761
19430 24552 33933
31734 30447 20766
14479 36088 20501
4534 5406 13836
28190 25687 9725
4035 3733 22283
16953 22019 -1005
23601 498 26268
19115 21132 -3732
8808 1262 -1253
18529 33787 30258
19214 15852 -2710
13300 420 -634
9883 18551 24138
9264 3956 -3395
4851 19760 10109
1927 20539 -1419
34178 9407 -60
5096 10301 -166
26808 29174 -2206
37069 12358 34016
35611 29214 18025
23142 16197 17680
10173 423 -3569
7677 36847 -3586
33225 25369 -218
19363 8677 5966
13429 21811 19826
24530 37040 28016
28527 5419 -1194
12412 13790 -2738
547 7223 -3516
17533 8577 9560
23645 25291 -2964
21432 14910 -2391
21034 35258 16481
20023 11095 -1240
37062 22467 -14
5045 18170 14298
2123 23118 -370
33744 28114 8336
35541 16347 -919
31961 16720 18462
17349 10282 3955
3431 570 31967
13099 13807 1350
11406 28602 19291
36249 25251 31046
143 24867 -1314
15952 33455 19513
29877 2393 -2999
5338 30505 -453
25359 28599 4006
31296 4903 -682
19744 37463 22619
31168 333 -2851
36846 28335 14090
2070 33494 -377
30347 18814 1783
21285 34406 -2220
31038 3805 -1570
23526 5977 28990
32326 9345 -2470
13259 6451 -1824
7337 25319 23367
1978 324 -1469
27295 25382 -2315
23522 15287 7461
36714 6662 21174
34665 26091 30523
29352 11716 34550
36977 13790 -3165
32142 6751 -2556
35812 35349 -929
21015 28731 -201
32563 26476 19353
10374 32872 13498
10909 12086 20522
20290 3305 19325
16644 31061 1221
16985 17448 -3483
26065 35959 1043
18066 36989 -1491
34815 34390 7031
759 18843 -1647
32951 7289 -495
30435 5615 15707
36192 9671 1469
29189 17610 -3471
19525 30772 29242
11155 8173 -3025
8481 9067 -1778
9505 19997 26042
21505 4153 18250
6560 10366 23445
34689 18503 -3679
37492 32739 -3415
6711 547 -3108
24493 8868 -2785
30944 4473 -2403
20398 37060 -3300
12688 24489 32921
27204 24816 16177
1355 20736 30417
17253 30627 -2788
4670 11307 8963
31414 25738 31502
17739 1891 4393
12555 30499 29937
21502 14321 5771
14905 674 11975
15552 28230 -602
4884 35227 13873
7054 20617 10676
1046 22325 -1842
6841 23084 -1642
20738 22856 2529
3246 21955 -1259
31091 33632 23491
4472 36707 9323
20886 9425 -3547
23055 10640 -723
4131 6528 -89
196 15112 -3702
13285 28061 -3076
5411 16246 -2601
929 27451 5564
18016 2205 -1710
23683 23503 -1687
5592 9726 8720
31847 25228 15422
20891 35434 -2082
35247 2898 -146
22277 8560 18207
5404 8663 -2957
7177 12846 -3612
11059 6163 -3681
10241 12532 22984
9982 2629 -37
34797 35483 34689
27096 12171 16715
15946 13479 -3556
31620 36768 30731
16946 31837 -2866
18389 19917 35493
16797 12498 2125
12243 9545 -1067
28706 21373 -1021
27548 7915 -1690
21398 5842 12327
35352 18747 -939
36004 319 -2259
32816 28452 9651
17150 31116 -3535
25090 14962 15040
23618 18815 -1809
2519 29796 -62
37446 22348 -2497
34206 242 29211
14007 3732 -173
14541 35231 9671
9657 6587 2784
6628 15875 35370
36819 2612 10849
1131 31247 -1050
29725 9196 36382
16238 25114 -1413
14458 18102 -3327
6956 29047 -214
12139 37354 -1637
18930 22143 -2129
1200 31819 -3188
5934 33680 -2310
34611 8062 -2310
11242 18250 1578
14976 21584 17003
25088 29239 -2493
14740 32434 -2706
2644 11764 24028
20331 26279 23186
4376 18100 3057
17462 9261 -1659
23839 28383 14284
4012 378 27192
17526 33118 5684
9592 15553 -3509
27606 4800 -1584
21012 20994 7085
8556 15920 11726
30252 11485 -517
6860 15925 -2025
15389 20171 3953
14500 33956 -1950
35276 7583 -3173
25476 21555 -2876
6110 6483 -1662
3816 23331 12842
18938 23673 27832
6396 1233 -3335
35024 20422 30074
15497 23379 36734
14464 27539 -1092
21092 24309 27102
14293 17266 8151
27520 37373 1674
36372 28265 -544
11675 30527 28952
26067 18089 7962
21931 35303 -2323
16306 33531 -2232
19589 4096 8813
2774 5519 -1122
19333 35861 20889
32713 13335 34460
22775 21412 -1033
11744 28321 -2315
16938 20282 37097
11191 11676 -3526
20573 33287 17630
19151 13469 -2083
13346 19079 -2362
12827 10656 8523
22471 2165 -761
35617 2483 -622
27485 7459 8901
31261 20423 16213
32143 7853 35102
18579 10272 -962
17550 8817 31540
29499 33630 1174
33078 25018 -1118
29478 25024 19252
35360 32208 18998
14261 29892 -415
4172 31488 -1319
25639 28666 -1296
35150 33438 35327
25503 8662 13858
17737 20517 16336
26245 20340 -1770
30456 19800 27823
15701 10620 -2711
36870 15245 25341
25016 36661 -1821
30288 4551 -3349
7255 15595 11045
35019 24961 -2870
9626 27145 -72
32779 5032 -879
11371 31541 28916
21316 29125 -3521
24307 5813 -2587
25970 9785 7159
4197 25528 -66
6337 986 -2888
2704 32926 32601
22149 20982 -864
18755 668 -2452
23874 7972 -31
35926 23103 -2470
11621 3952 -962
8402 13639 12010
7049 11989 -2755
3460 3823 36258
28327 24067 -1813
21658 9150 -1202
33167 14395 8940
37057 18593 -313
25091 21649 -619
12044 15503 22656
14166 19420 8316
34250 14630 6362
19357 13283 -2555
35250 30109 32834
9368 35914 -610
33352 36100 -292
10173 710 -178
35825 37064 17715
5438 11595 36265
6709 2463 4605
6751 27848 -805
18645 25215 20787
29778 21213 -2568
8590 23124 14998
5063 2321 22296
11689 30425 -2860
3238 30821 15185
50 22823 -1132
35123 2520 18821
36698 24592 -3316
21904 30179 -3594
21775 11848 28261
31338 5974 7407
31795 13874 -2836
18520 6344 24135
161 1895 30649
30102 4837 -2169
27294 3062 27997
4657 28306 21657
33543 29685 -1783
18611 14010 -2976
12726 11979 8691
3058 16232 23838
29689 37473 -1056
7864 2573 -1472
17068 32347 6316
31562 24020 1763
30256 27084 2089
8920 17239 36434
36696 16922 -3609
19898 23 4302
8830 36676 -534
28242 7884 -3452
32516 2474 23761
4344 691 -1958
8020 1277 18830
20274 24022 18075
9180 17841 -3427
18055 14715 12295
35558 21914 25850
13392 13464 -2809
6559 3765 22974
22001 16653 20743
32271 21978 -449
26449 12138 19754
18092 13986 -3341
14998 34187 -18
24950 284 15365
18666 14835 2808
9429 11989 20847
8083 22865 2963
3192 16452 -203
15299 18536 -1535
23132 5130 -1620
9382 28339 -2522
1031 15573 9753
11379 9944 -3168
17144 3893 12414
2608 35692 1384
23355 17730 -2641
12646 16109 10691
25139 31584 -381
17436 34032 21033
20212 7181 34914
6627 11148 -836
19654 24381 1734
3498 21025 14008
25513 24390 -1005
19693 34623 -2413
28886 25666 7404
23483 28196 -2121
27710 8958 6578
35629 21219 -3280
2258 9493 36708
9366 10782 14813
17225 35956 -3233
30351 28572 34345
9000 28842 17501
13831 1039 -2106
23028 9142 -2962
15652 26659 6956
24053 12964 21111
8037 29921 15356
20768 30044 -919
15354 31151 -455
20939 27485 29208
7178 12852 -2612
22814 18194 13215
31509 890 -1085
1322 17324 594
28566 23205 -3352
26782 14177 -3177
22316 26203 229
24507 14549 35554
3753 7991 9488
8494 206 -411
1657 37250 -449
6999 36458 24963
16975 15899 -3059
29723 25154 -1426
5290 34362 36501
18605 4972 15123
4365 34063 9493
33661 576 -1024
11155 13854 -3079
29669 53 33373
33881 3404 -2070
882 8292 28587
2811 8015 3717
30456 34426 -621
18026 23369 -1659
1944 28461 7112
23583 11275 7721
4224 32149 20234
2442 5483 -492
19049 34787 19438
22882 21440 34918
23008 16068 -2224
20395 5253 -494
28980 21776 14808
32456 12718 18120
36614 5267 36621
21145 21848 29394
3855 29958 25827
20086 19382 3755
3959 25707 12140
4554 14460 31503
17762 5319 -906
8124 23457 21757
32693 11620 -1391
26676 4105 -896
23036 25069 -13
5903 8857 4547
22232 14335 -2789
11126 16157 -2707
32398 11808 22742
34655 15366 -1616
23067 24970 26348
270 28301 35142
5720 24970 -395
1326 9197 -1481
22651 5635 -137
22927 21119 -3579
1225 982 -988
9780 10359 -2715
23474 34106 8736
19289 33719 20368
32477 30885 -1773
30898 12310 -1904
19824 12870 -3612
2554 25643 29514
28209 34920 12740
2422 5155 21894
8159 11397 -3089
15140 22916 -3518
37195 29777 -314
13582 37268 4861
15517 15404 -1546
35420 9375 -1670
22706 12869 10983
13241 31633 824
5673 22171 -1627
17778 22357 -2530
20507 33821 -1932
169 29314 170
22649 2823 27011
36522 7430 -3261
26468 11164 9027
14078 33989 29690
15571 36564 -3602
15520 24531 1312
1668 23724 3356
25554 32970 23426
31135 26833 -2093
28627 33738 24844
26039 27156 -2585
32175 33215 25595
7322 32368 -1867
25394 26079 767
18133 6786 19160
23783 761 24016
5802 27990 19517
282 36820 22533
1407 20663 28898
11494 12976 -575
31055 23894 4544
10921 14698 32662
12828 6851 -2898
754 6858 -3563
13851 8917 11991
30798 12812 -2024
15098 6324 8467
17233 23327 -1972
30866 15389 11129
34844 37032 -457
24682 28735 -2484
815 21962 19214
15136 20633 -1182
28288 16922 -3219
17490 35918 -256
33694 24140 -2303
23892 11105 20027
14992 35838 -1819
31218 37383 12759
5769 22781 -2614
22916 24290 25979
30049 11736 5018
20577 33552 17870
25535 20923 16380
22079 37179 15384
16520 25125 -2234
8997 23307 23937
12036 1581 -3006
18666 20496 18502
3244 18985 -1543
29106 23092 15212
2729 8532 -1212
18105 26733 -458
16796 16412 -3407
22402 21517 414
7553 12679 31342
4843 2138 31798
36243 4299 32466
25546 14380 22463
14205 36815 -2697
15944 35239 8021
21435 11471 4326
28057 14319 1273
8337 22555 32834
36944 3170 -3363
33597 24001 -2299
11169 19276 -1203
33737 5848 4227
31815 35170 27124
21676 25779 14564
23255 25726 16464
18467 15816 -2730
27832 32029 -1434
18392 15522 17134
20994 13943 8564
20669 27062 20719
16939 32593 -2145
16476 13807 -783
34564 16433 -376
25847 147 -3100
28386 29525 3246
26548 16950 -1939
37110 9081 19082
19883 10624 35086
20546 33495 -399
33060 20149 -3022
15214 30666 11491
33827 10036 -3364
11392 18276 -3612
21521 4900 25216
33825 11787 15582
26367 20939 -3658
23109 33145 7538
15406 27456 32442
3293 18866 -1900
220 22622 -1429
34091 15046 -269
11160 34627 -1923
22086 25602 -13
17462 16145 -1077
8638 36738 19920
21598 8576 31946
32916 1567 -1129
12760 25092 -191
16325 19087 -210
19380 37307 8811
3041 22209 -181
31537 19938 -2831
7530 2114 11614
25659 32416 32053
31033 3798 17798
34017 29628 5750
4877 20596 -2176
34177 9704 18129
31579 32506 -3246
34743 12839 -1053
9113 14249 -3351
17817 19631 -1366
9551 28600 -694
10338 30245 28399
3181 16285 35403
3455 7899 -3559
14206 7726 -3724
36018 34141 21388
25676 10069 -3585
24016 19472 18272
23719 31796 -2290
13977 9491 -671
660 548 25207
23602 30228 -2820
16802 27639 -1077
29054 13113 1824
654 25982 14767
24111 22747 -2176
20733 31575 25914
735 26389 -3410
12279 7533 12
21162 8893 -1513
24964 13334 -117
9296 17860 -2176
9562 18540 24413
1185 18376 -948
271 9951 30853
12331 19133 2796
279 32269 -3238
24095 14442 25704
29588 24579 -673
5376 31023 7994
30079 28325 17310
18121 14004 14923
9733 136 -1673
13793 684 -1557
7243 6202 1494
181 14581 4758
1436 5378 -3497
29765 342 32983
2837 27068 -1920
18975 8857 35445
4702 3653 -2182
23046 9846 34593
12999 15797 19200
29412 22733 -1677
2463 6122 -826
10191 24978 -1016
14352 3764 -208
14501 6520 -417
33490 32070 -2215
26821 3107 -1544
28980 18743 25237
13341 18240 -2669
10399 29263 -2786
31112 32310 24972
22577 3217 -1676
19061 36305 -1846
13054 9420 20084
8889 28896 18891
9522 7309 -1432
7618 36395 16254
6623 26997 -1824
27797 28405 31924
22424 27105 -2043
29581 16007 26170
31154 6487 28897
8928 28394 -3654
10325 26845 9343
2085 768 -1442
16492 11885 15682
28737 18941 -1045
24830 17407 -1180
547 14570 -416
6613 20144 34627
35617 12851 -2017
33557 33087 -1
8637 28049 31126
29752 8329 12134
439 28850 -2337
16308 20350 -86
29355 3495 -3746
21128 8938 -2610
11580 19661 36686
19757 9891 36206
14877 4381 -1481
13340 24176 28482
20831 14443 -3538
18833 26608 9405
11915 17240 12724
14415 32516 -155
35606 10484 11728
25043 34036 -2240
16723 21084 -3554
31385 13775 14793
10040 27028 -1139
32042 4133 15910
32582 27600 951
3936 16857 -3026
17834 29187 34490
8243 10231 7680
20725 34206 -2314
5195 29005 24889
31026 12507 29501
13608 1084 33932
8724 7785 22439
7411 6031 -2856
30956 32823 16455
8576 1573 14073
12925 1648 -3585
18695 16314 21258
27427 10650 27765
20380 27256 1340
211 26754 9229
12560 7136 11128
20025 14498 23989
11033 24619 -188
17789 37023 -2007
6630 21605 -1176
35653 21659 27640
26674 22496 2608
3402 29550 21950
37400 26521 12138
8877 1484 21160
7507 2527 33484
5730 31209 33292
28190 2716 19881
2970 1115 -3364
14227 11089 21366
23257 5427 -2294
16529 20985 -1713
34818 10813 -1956
33046 13051 27842
20857 36837 -18
20531 31838 33239
18253 20250 -765
6 29195 27926
17415 32610 -347
25342 3580 -1019
5873 12911 25235
16902 11211 4299
36575 17428 609
17158 5612 -405
29267 36036 1099
19973 7352 24197
20827 14034 22183
807 3481 553
8281 21429 14341
8622 10922 27682
9857 36687 -667
10743 28608 -515
2416 22598 -3001
15100 34880 37303
15035 9336 -3003
7537 4110 -2790
20935 28015 -657
23500 30292 36577
8078 10590 1755
9111 5104 31971
32911 19901 -118
15804 33314 -2707
33071 21304 -300
10092 25810 -2857
18489 13878 28047
35821 17430 -726
27469 25941 17158
25872 10119 8774
18827 6820 -3489
28904 1043 8378
34983 3972 26794
15815 21259 23521
22000 26367 34837
17307 8697 25229
15113 27838 -2981
4799 4777 -3646
32794 7807 -1197
36768 35112 -2959
30309 15461 15601
25876 21086 21899
32157 16181 21039
18178 2322 36895
14718 6681 -3014
22343 31504 33900
8245 28753 -289
21968 24603 -2317
2735 30395 -3719
31097 24115 -2922
18055 31733 18904
16859 17707 32549
36368 7237 22077
26621 32173 34474
24799 19757 24400
11174 19181 -59
7393 28162 5898
3084 37442 -3549
3625 4 32827
22842 28099 -1732
1579 33182 -2367
22294 19893 8584
35267 10808 9732
1211 2932 -1005
19727 21495 -851
16915 32710 37144
14145 33317 -1941
27772 26059 -1018
28243 35065 14650
21401 14812 -1057
3312 21679 3557
15041 15489 -496
22186 29689 28071
25192 20456 -1039
19410 24963 -1569
34960 3111 10264
1438 1620 -1364
10400 14580 9861
936 9017 -1993
8973 23737 -944
26028 9248 151
22497 24271 11867
16788 28488 4924
30266 35837 23352
9896 35970 34864
37142 29472 35789
15358 7625 3803
18615 8546 -2927
28094 9748 -1092
2392 8576 -3533
2988 26042 15623
27052 16292 -1226
1123 22263 -117
12621 25829 15988
35818 7875 -1280
7901 5105 17429
22484 36508 7403
21591 8804 -2040
4170 24550 -3374
476 24934 -1160
4700 24308 -2862
7032 3386 -1802
7719 2991 22621
14241 32946 10733
23630 15477 -3185
22485 27273 -1888
7336 32263 -2123
17497 10930 -3148
11643 3158 18910
32067 27140 -2833
27640 3847 -1227
32027 31062 8488
33097 2569 -1470
6816 14500 -3599
24942 21332 -839
9291 27495 -2863
27173 34687 36649
26292 6996 26491
30731 17188 -3244
29535 21575 1188
10851 5470 19151
4861 31289 -1076
32128 16171 -550
20055 29690 -2387
37016 26954 26632
20954 11222 8125
30361 10829 -1525
19572 18574 -159
33660 15409 7812
24459 12628 -300
1006 11230 18092
16581 28837 6351
12736 25843 22534
1950 9973 22564
7654 18223 -2244
31160 20694 -954
30498 6573 -415
7639 6754 -2482
20040 520 -3041
4555 784 -547
5098 31216 -665
22767 7806 -2375
20369 5432 -1373
24398 27687 32267
24028 372 11984
33029 5395 -3516
24397 13822 -3688
19977 21712 -1733
11096 31818 10607
10899 29678 5858
27461 10286 -3208
5606 30847 -1827
18008 10457 6829
23305 12862 30427
34481 10395 -2694
22327 24473 -310
36825 15549 9058
20812 33981 8506
20057 7698 34572
4533 31408 21976
26270 27783 -3551
24231 21136 28769
2364 30859 -862
13091 5025 24874
25354 13709 -3354
22934 3853 -2014
23292 9551 -2197
23995 119 -2533
6627 9950 8347
23530 7174 24728
13494 37074 -3257
6092 17441 31898
36929 24287 35904
32490 14025 21350
34492 1713 -3482
3904 8444 36413
30645 8300 -957
35500 5393 -2715
37482 7990 -3689
6688 34517 -3521
9545 23292 6411
31584 17291 36981
24554 25515 7448
2577 16641 16740
33414 24860 2361
33157 3776 -572
7750 25396 -1651
22139 9644 28200
29568 32347 23956
32795 4813 4149
11103 21154 11007
18209 9563 -310
17013 28781 -1793
33101 29531 -880
19542 2997 10515
1799 3756 23584
5139 275 4305
24378 17069 -2267
2881 4902 12228
22670 10246 -2986
5491 7094 2235
34104 30376 -125
24153 27823 -1596
15476 17888 -3488
35529 92 -3702
29231 31773 -1789
12812 4427 2766
34482 23172 11624
34669 23431 27825
20321 28867 26924
3706 23909 -2091
9174 1551 17303
16305 24128 -2045
6392 32140 -2751
30541 24508 9056
28559 28814 29734
24667 26822 18437
22494 32929 -3435
2069 11419 -2987
5086 10860 6082
22680 21132 33099
20314 36533 -1453
19454 2755 2896
31480 18565 -373
14900 21219 16497
5260 22734 20558
30236 21898 -1383
23482 31611 -3316
22774 29432 -1245
21868 19539 -257
8848 7060 3825
11945 14874 -2940
19778 13720 27123
31691 10276 2331
14553 19798 535
16126 21716 2557
37304 30714 -2392
2184 27434 7123
8072 9024 -2456
29698 14141 -3421
36676 12842 26269
14863 2890 2433
23606 18255 13786
4394 13908 1881
14439 18273 -3181
12634 34077 2766
23588 34363 -1643
6371 7964 -672
26771 1626 13898
24184 9526 -3224
34486 24129 22365
16382 9255 -3362
765 15047 8940
3935 286 -587
4097 35510 -1148
34154 4327 -3229
6556 7931 -3597
9929 287 -1013
12040 19610 15244
1148 33535 17282
11793 33744 24228
25151 3202 -2145
4401 16065 31040
12771 36387 24970
2654 18774 -986
31743 12261 -909
12479 25399 -3268
2479 25257 -2275
8706 32731 18710
10324 14556 -1436
4550 21773 17066
9178 3762 -982
19670 4140 35269
24977 1020 21390
36131 23973 -718
13407 19 33293
30590 13562 17131
5454 35573 -328
32275 20573 18402
29126 2620 -307
8173 27199 -1583
6056 10496 -1665
10515 1467 35756
17031 7366 -1834
10976 7168 -1055
33767 17463 -1570
32697 7170 -3437
19826 32270 28813
14966 23483 2438
4056 16693 30094
4876 18691 18909
3748 26769 19912
33051 1154 4513
35082 3211 21072
22873 28927 -2215
35797 20476 -226
30352 16289 26021
22785 7345 28928
15478 13761 -889
18212 28844 8423
26492 15240 -1686
17381 24030 10753
4869 14230 372
33311 7077 -3466
35978 34057 20711
25512 21314 -1365
1242 3380 -2428
35490 20228 -167
10965 828 14282
19055 15626 18115
21499 8163 -517
16980 31951 -2234
32876 19553 -2391
7349 24221 -1371
4190 11871 27900
27120 26943 21207
31499 24118 -335
21383 36304 -1867
3158 21084 -3066
20490 11154 34646
25788 3086 30751
20679 22541 -2377
23104 6187 35806
11078 17096 -980
30774 35597 -1612
28310 30593 22076
27675 8625 18118
22811 10021 -2751
22290 688 14085
33614 27013 -1000
29371 33167 9492
19806 27811 32354
27815 15786 21656
36727 5270 -1033
22421 5545 36584
3739 36025 25545
34444 5865 23973
11718 24092 -951
37059 32349 -2054
1028 22105 27675
30594 2359 -3199
13013 4457 -1326
14809 22684 -2501
21509 18615 20812
20127 12073 11091
21673 16200 -394
11901 19418 -3351
17315 10864 -2172
15991 23485 -2998
17524 8470 -1865
30259 37279 21144
24961 8984 -2408
20008 15039 -2930
36523 9901 -2303
11750 11207 -1434
18143 26886 23803
34308 26943 32590
12037 28829 26011
6739 10520 14509
31359 19744 -2284
36055 19172 18501
10963 21555 27602
10524 22514 -2955
10976 7897 10162
15597 18433 -98
16460 37232 -3498
20435 25105 16492
17176 11949 -2043
21601 9553 3964
18051 36040 2914
23073 29860 36484
7105 29855 8396
8764 15170 -1193
7506 25260 -3288
5265 28687 26284
34686 6158 31366
7825 27370 9076
4914 23821 27912
23706 4129 24935
9652 32930 -3238
24802 28180 -3403
14308 34524 -1275
8582 1775 2266
27308 16028 19545
26819 4470 24231
1442 21579 18662
19145 15315 24761
35671 4520 18140
31494 23956 18231
11754 15384 9750
9779 14612 -2889
35714 12656 -2673
26179 23983 -2194
29113 7591 -2760
29090 25704 -3448
231 16024 -1324
14139 1407 9239
22829 32789 21056
2361 26344 -1833
10778 24047 28658
23974 13635 22106
33068 30174 16283
17563 10071 15702
32918 12273 -783
10632 35658 16263
9580 16353 -409
7866 9091 -3172
33408 2079 -2846
1435 9534 -892
27112 2746 21810
25742 34074 -1532
18593 32581 -2226
28483 4959 25328
35015 18503 3074
30000 13982 2478
13983 3507 30010
9114 16092 22988
597 27451 -1306
29925 843 35155
28701 31019 -2296
15558 20810 -1282
25743 14103 -2550
32651 22565 -819
37050 23018 23561
17205 37137 10934
24397 27399 -1410
29947 22393 19755
34938 26251 -2529
3154 10898 20497
5445 2002 27105
20660 35578 29623
32306 8491 -1500
49 32796 -503
12488 24234 34887
30489 33822 11182
16461 30444 -1435
34293 16272 37476
12630 5441 -405
10256 15775 7733
23362 27739 -3441
30404 26529 33566
30335 25131 -3635
12649 2780 -696
18550 22575 36237
31441 1607 12280
1120 28451 -1557
20909 15846 24034
13270 24587 -2733
25588 3881 -1560
23302 30475 -176
12191 23184 8899
20521 13859 -1854
34554 30684 34320
24271 29993 -2516
7107 22562 -2226
23750 6479 16595
791 5124 21291
6676 18121 -2744
37368 11253 10489
15271 14931 4619
15861 21211 -1438
3296 21702 -270
19108 32153 -877
10182 20652 8587
22958 10575 -1947
33307 27672 33411
2111 27186 -1423
13272 23568 7309
4843 30053 37348
577 10683 -89
30965 7895 14052
7591 7215 1347
3074 29488 -1077
28603 28195 -1109
4688 35539 -1812
18892 29186 -1288
912 31300 30413
27238 9963 -3181
4916 37208 35596
117 19183 -1530
16550 23528 -3389
36741 29504 27899
2339 4939 -3686
10173 32389 7602
26953 5276 9892
18666 18558 15878
19230 4717 19122
9522 19735 2314
682 37280 11279
1672 16082 -3226
30555 35048 -3168
14796 12239 33038
11842 2576 18956
16052 22917 18219
25879 11998 16127
4789 17790 -674
11962 11835 -857
31127 34359 22265
33963 10216 2153
20916 6200 -1381
17007 510 -3095
2808 9016 17876
890 36483 -2776
5977 280 -2443
35414 1471 24479
8129 15704 -2430
21702 20233 8911
12044 17873 10579
33931 15015 11391
8999 16529 32913
7601 18782 10061
928 3450 32958
33623 35885 -1141
18811 31343 1243
372 19883 -342
4842 4746 -2422
3848 18197 17095
1522 1633 -2835
774 518 -3567
31458 5244 -55
27093 6457 -2805
16849 24194 -377
24188 32313 -85
32768 1199 -1677
21253 31597 -67
28798 35041 12951
20478 33326 -669
23360 25165 10812
5251 14571 22514
15937 6630 18122
2401 3972 12573
29158 5285 13887
26533 6150 15362
14488 24646 1962
17151 30320 36894
5394 36084 9802
5890 12833 26956
17833 10079 -3132
36250 16259 -2456
3412 13954 -3485
34895 30284 36801
22388 20069 -392
37185 11819 4225
17546 15957 5362
11510 7187 2482
22389 9300 33844
31347 9028 -2517
16710 15588 6801
31180 3686 3557
21751 35324 -2207
30196 24088 12098
12641 28191 -3402
7504 6333 12239
28813 27973 -1763
7847 31937 -1094
5666 7109 27185
26292 1315 19753
16924 7688 36562
26432 10345 1428
5125 15961 31853
31048 23797 26014
20966 10242 19950
33102 29979 14723
16760 26780 -3005
34195 35160 33426
18542 15806 11859
1689 23912 27454
4014 25610 27934
36587 8245 31960
28676 18142 8369
10952 29128 8530
8416 11927 -1128
854 23830 -3570
16076 23146 -65
4636 24371 -2032
20166 7411 27563
10810 1033 -1452
24441 22052 -3067
26523 13733 -1208
1854 9620 -3499
9220 26499 5527
4568 9185 -3491
25362 35365 20635
27333 37329 18916
22331 21713 25613
10821 22800 10577
4499 32318 -3005
3586 31627 28273
34835 36668 22772
4299 26048 19169
26779 13983 4624
30599 5447 21822
34912 2835 -1024
4069 9437 8883
36699 35503 -1575
32100 238 27895
19349 11658 -69
24698 26067 17716
35317 33519 10661
9567 24235 18652
10113 22177 -1759
28899 12131 -2625
19790 6359 33506
15636 13231 25191
8822 36461 -2494
21281 21095 -2715
2436 18080 18408
3058 29983 22488
34527 2766 19466
17317 32335 -2503
35541 3828 22358
21231 29134 -3698
28535 33299 36247
26097 36775 -330
5205 30905 -2184
21833 36803 25489
17070 26308 4463
17581 20876 -804
14670 5324 -221
8005 26814 -969
6505 7082 21782
2295 30268 -1100
27363 1526 17138
17866 36695 -1635
23741 25789 20967
12205 27808 12577
4029 18615 5961
21796 24272 10687
10602 15488 -972
2738 18792 -381
19650 1907 -259
13329 31088 -591
24430 35799 -1281
4720 34690 -1795
30749 17811 -1458
2861 29014 -1215
17373 16633 33606
2957 9373 1276
14228 14694 -58
21345 32137 -1723
31054 10159 -1834
3877 16426 -3274
18314 11986 -3660
2540 4238 -2050
20365 26944 -1752
12943 35252 12154
32635 11428 5790
36283 33076 -2154
12020 17279 -1547
18338 14612 16272
33089 30602 -1846
16164 17185 4784
25706 19567 -1837
30727 4899 -2776
14172 30662 -3579
21379 4433 13229
19868 36754 -2641
37231 35542 -3002
1664 5794 -1096
6471 21443 10149
20282 23182 15451
5101 6577 3595
23900 33643 4098
24466 17900 8196
2753 23174 -3449
14098 37474 -2426
16887 6879 -3264
19299 8038 36727
33165 22811 28120
25142 21933 -1846
2817 15782 -229
24475 23819 -681
8247 30477 30354
34219 13836 -1696
33291 31542 5371
19808 4658 -678
2770 18330 4301
27520 32202 -1016
11600 8569 18342
5618 29745 15145
23984 22267 3163
20399 18718 6898
15895 9684 20383
28103 22820 -3318
11484 26670 -914
7739 2260 31754
14041 7680 -2124
15867 26186 3459
27027 15819 -30
5831 37070 22241
8956 274 -864
23628 29886 -492
1047 4077 -1501
6792 24364 30824
14598 7819 32302
30081 27497 21517
7813 2955 -2713
17904 248 18248
30473 32965 27089
1730 26957 1981
3511 1667 -2872
261 37359 26843
25309 21140 -1779
35248 20382 -141
5138 20922 -596
23098 22913 -1565
1549 6816 -745
35003 15403 29319
31687 27776 33002
20681 17822 -566
21845 8094 18021
17213 6196 -2625
24985 30236 -2314
10842 34552 -673
36079 7151 -1422
12555 14820 29896
4216 2527 -3438
8738 20283 14209
3476 29154 37219
1530 10334 34346
6691 27221 15918
13550 9772 -2368
36903 10820 28264
22758 20112 14657
13184 5 33884
13619 2818 21721
2508 8461 20096
4408 4655 -1647
21314 16193 6518
35604 3761 5837
14808 21560 27408
15783 12858 -1992
28035 26251 29839
35367 28828 -3646
9628 14244 18403
35911 8180 19146
26535 25969 -738
3099 3932 815
18317 24729 12496
533 27050 11685
29102 16889 16315
19252 30975 -1726
25391 17439 3826
4219 24069 10521
19188 14392 -1678
18829 4034 20832
25406 12590 1715
14182 8595 31490
12481 27213 -961
24649 36336 -1703
21433 29234 21218
26306 25487 28975
21078 16867 33951
2024 32681 36761
36993 33598 -3287
8715 34356 10699
11635 26464 5791
27512 33877 -3228
14005 30019 22320
11838 19917 -1744
21259 18374 23074
11094 6649 -1023
25671 17009 20036
9209 36738 -1901
24599 36586 -1984
35362 12574 16153
1608 24200 35054
6370 22020 -509
15212 26049 32448
14112 20882 -110
4149 2073 -59
21889 16744 320
3013 31234 13443
17864 28123 -308
34799 29887 -1303
23729 5396 5765
9478 12571 -3472
2766 20960 29125
16272 23501 -1352
15530 512 -1705
19875 4775 29293
11934 12753 8498
31747 24796 32211
32626 15242 19588
8142 1511 -2280
30134 31453 1110
1070 16265 -3420
9274 36430 -2084
22999 7568 -2349
4708 2567 -1083
708 10670 -734
30345 9978 5126
16304 30166 36049
28324 24888 22594
8319 16051 4922
5565 20850 -875
10180 35096 -521
10938 34609 2884
28771 14703 29083
16376 15873 -3051
31215 1001 -3722
4534 34136 23983
31155 2477 -3654
27113 29535 -30
27677 28720 -250
27423 13483 13067
13312 3815 -2303
3292 12181 10392
22079 1824 -2135
3379 22504 32714
13529 9226 5376
22352 22541 -1084
19820 33626 32004
13863 34314 10355
31337 1815 25496
23348 33455 3768
28177 22316 20605
17394 11744 26422
18239 28617 -142
13109 21501 21004
15807 20423 7063
6705 26822 -2928
6082 20112 -2985
30442 4514 -2762
29962 18536 37421
27977 2242 -2302
21693 21599 6304
4233 21959 -2017
4010 23823 4072
19039 22847 1788
11419 5600 18931
16991 3350 -2902
31399 33838 -3715
31195 8400 30678
5731 12309 -878
19321 17803 -325
6738 32065 35689
454 27991 -2519
20494 18154 24896
22085 14744 27202
23391 31059 1103
37050 7916 -2364
35964 574 -780
9122 1402 -1131
20020 16177 -3363
24665 36518 8182
37137 7268 31145
26225 23244 -746
81 1498 34414
36532 11798 25410
27588 14578 -1457
10584 28184 -314
13510 6033 -2909
16052 5598 -2867
22870 28730 32417
22065 18812 6029
19375 26162 8806
9732 27819 6091
19866 8361 19917
37147 28763 -3069
8648 5983 -260
7830 27709 -3574
28802 4048 33288
33141 11536 -45
22716 4092 -1699
1010 612 36661
25167 28170 -2133
29001 17529 -1114
9470 23220 16477
23354 27083 17106
19111 15365 -2118
3166 12414 -750
20915 30798 -144
12079 20062 1649
2721 29279 -1721
13973 6344 34552
23743 16667 -3530
16524 23238 -3536
1661 29035 27612
31431 14972 30563
5033 26674 15515
20056 32841 12840
28107 6366 9187
14461 25608 7124
11292 3560 -3649
27255 12504 -1899
35314 2880 -3658
29774 30005 27749
6535 4676 -739
15710 33624 13884
32982 8275 15914
19998 18096 13312
308 33644 -3004
37172 10498 -2245
5947 32908 28728
6026 5255 -526
13011 22310 10040
23629 7885 -309
29636 19670 22298
4864 21430 8203
26847 30469 -2036
27574 5785 14634
34808 22495 -2601
24328 7715 -1422
26618 18398 -1583
21534 16785 35309
18079 24860 -2936
25755 27817 -2226
32158 6370 -505
14297 10848 -2316
18749 26789 -2161
13881 1775 -2033
2869 7732 -1888
27224 1302 28217
36822 32306 -2977
23822 29787 -2677
26653 6793 -3261
7973 744 -3244
8924 35834 11836
27257 7330 -1581
31403 17065 17294
4771 28049 -2803
30148 18222 -2192
13203 9142 -272
34027 22232 33966
17466 31923 -1003
3203 9892 -328
33795 12139 16741
11163 18211 -1321
30101 9861 22209
6207 3501 -2852
35641 28493 34776
279 19771 -1705
5614 33195 -857
28838 20651 3311
22365 32914 13948
24809 27506 -583
36260 13494 31414
15388 31163 2265
11561 951 -1225
656 25009 -1357
21380 20719 -911
1624 13796 34733
10277 19417 8593
11999 13601 -2511
32005 21520 -2779
17471 709 -565
32734 20999 20346
37272 21026 25335
3829 31403 -2163
11462 15918 16692
18712 30989 -3674
18485 19719 9658
20111 30921 11510
163 34994 31039
32430 7126 -386
31968 16840 -2389
27691 22805 13821
31095 19841 16608
10898 16719 7157
21526 4273 28159
1993 27474 -2428
11972 36407 -3193
4261 18738 -672
12136 20147 31739
22580 23037 14842
5195 32443 28878
35743 13948 10627
13976 22369 35606
34799 27737 -1154
30607 30375 -1245
17746 26416 6890
30416 18036 -1722
24513 1224 -2185
2817 14941 -3121
12502 3240 881
35850 8848 -180
11683 27937 24371
31957 30080 -3445
1657 27453 10006
12991 22925 13051
11428 24175 31500
11168 7906 20031
11543 31603 -579
19082 13282 24103
13948 31639 -979
18542 23886 14955
13381 21094 -2470
27880 19223 29826
21009 37432 -2135
7871 15614 4040
17454 22107 -3220
24447 23771 -1627
16481 23464 -1639
7916 12022 -2631
21238 27314 14503
5154 2728 12227
29195 2081 9006
13088 14380 -2149
16028 8720 -3291
29391 23628 -1513
14996 31554 25087
5288 34519 -1435
29469 30039 27028
30097 6416 34079
21651 4024 -2721
29251 25459 -3253
36982 8072 7750
31158 27647 34270
30564 32608 7695
2928 320 1234
33641 12925 6563
29964 9249 -2744
3534 16667 7792
2971 4935 12574
34831 10944 -86
2487 26167 -2194
36876 6496 -345
29184 14543 5036
26582 15918 -450
31069 13515 -3515
16144 17092 -478
30174 16147 19188
24828 15130 -607
26504 30566 8645
4582 1784 36224
36387 23223 16924
21174 16433 -1853
27705 3798 -3135
17408 21602 -254
24235 5205 -2719
3827 1816 29977
16631 21329 14923
2797 27368 -892
3508 14348 -809
1273 10166 -1043
1425 29873 -1487
36390 9685 -1831
30666 4485 23419
7079 35150 34149
31835 37185 -339
37477 33991 22498
27671 5586 -2332
6309 3480 7018
31239 1814 36850
19822 36075 27390
26206 1707 14355
16138 14588 31131
15496 16210 -322
1314 14301 -2439
3681 18400 -770
8139 35998 -3580
5157 5807 -2911
5131 1484 -2356
10912 27709 -1299
32811 19145 -833
22685 7736 32206
7660 25875 19515
19105 16208 1987
25355 286 -1522
3917 12368 32722
2448 11667 -123
36369 16278 5000
27662 6495 15197
3262 31636 -1990
28042 22867 14851
26532 27673 -938
24406 7133 -1981
35507 19325 13125
21668 27544 17977
20540 9015 4159
10583 21378 -2595
6300 9118 31164
4413 27404 22691
35218 1328 35253
17278 28451 26176
17377 20429 13725
31669 30736 6563
32475 33809 -11
25711 18923 -633
22580 26123 -3423
15977 9856 12929
21597 11239 20526
702 26210 -1682
19735 13555 -661
5010 29401 -1674
31284 1427 -3070
13808 35655 -2961
17337 8540 21122
31250 26492 25277
21268 34755 14747
18316 24584 20902
12611 23721 -2857
6286 24941 5745
20288 16597 -767
8589 11522 33985
29810 26025 -450
32475 29179 -2711
31853 23596 29590
12626 3789 -227
24831 30673 -3489
21766 29754 -244
24400 8058 21645
16060 8803 31934
20358 29267 34799
24119 5093 -313
20944 7185 -672
22480 23958 6429
6668 25937 12715
20544 17575 3044
36076 36814 -3220
12253 32599 8999
5325 31741 -834
29458 29705 -2835
36624 10855 31561
35008 31598 18837
2036 16350 -570
10329 32931 -1654
29437 15551 10357
23579 36888 -2692
34445 9806 6919
7207 27915 15118
21107 16377 -132
26960 23890 27106
9734 27012 12431
18953 25153 27066
17623 25882 -1912
29552 17506 -2067
6745 4340 -1876
14359 29862 31722
12631 17095 4014
5884 29901 -523
34989 18411 -3544
13280 34943 19942
9616 33618 -3562
14921 18066 27927
37310 5937 15526
17597 12032 -2675
30792 4176 -1293
11932 10220 -1670
17951 34641 -1096
26683 10912 30195
34240 20275 20051
14969 13950 4979
5559 31439 3513
26524 28847 24674
20934 30952 11899
29247 8468 -2012
12684 8744 -324
23911 12422 -1189
11156 37004 -3407
32578 31690 15063
18967 13838 37147
27167 28889 20392
35638 11208 -89
19052 35158 14064
13355 22954 -32
16603 29259 -1142
14849 7250 4322
4813 28320 -3697
32988 2428 28785
36887 13120 3684
32180 32291 31554
21007 22452 -3421
10620 16742 9639
21161 37077 -2394
31347 16885 -2345
17072 11821 -1724
33877 5521 11503
18520 12585 -2547
15994 26742 11993
326 2686 31782
24912 15293 -407
18933 17301 -395
27882 30505 -1839
25725 22848 13082
31924 31519 -1271
12499 3582 31280
15033 24940 34472
5896 33150 29614
29324 15478 -2489
32218 3338 -3647
6288 9659 -1865
625 24830 27364
19949 12378 -1705
30315 25967 4413
3046 340 11268
13350 25647 -1524
30805 12633 -2715
31009 34385 -2318
15278 13428 8520
5646 30280 -1485
5646 4333 20513
33587 24213 25627
36741 20743 7490
26573 22482 -3206
30231 11710 -1265
26246 6170 37260
29301 29845 25051
4707 6960 -1882
15891 19674 12311
12747 21994 -2036
12097 23813 36442
25413 9951 -747
8654 24898 15756
28858 10715 -327
25037 15823 33925
35562 32161 -103
6877 18906 -3572
26280 36826 5363
1285 10553 12116
9124 17183 -2143
29174 29119 27183
26319 15078 20549
14117 34403 -1896
25298 25267 22338
26126 2706 22940
20990 32713 -2411
13636 15505 -3181
25767 9365 -2827
8780 32 4032
24067 10865 32119
7030 16562 -64
5404 20512 -1864
12497 20269 1351
1380 13790 12476
22503 33163 11890
20685 9298 -528
17187 7754 -1099
32958 33118 30473
12262 12099 36374
457 21219 -3365
31772 16211 -1616
17246 21190 -94
28219 10838 25535
15344 19322 35333
25419 11226 5236
18341 23469 -233
23893 20988 13594
14309 10405 -1650
13383 33221 -1349
7054 33447 -1905
14598 502 34682
1071 288 5898
24816 2239 -637
12555 2206 -3164
16921 11380 -1111
31542 6220 -897
5942 8529 13501
20994 27152 12470
13022 1521 -986
14982 23520 31151
5387 17498 370
16470 18644 28315
10753 5354 35785
35363 29554 -1791
2856 2971 -1768
23478 29704 31402
16288 5371 10585
1508 676 -2222
17092 34275 -415
20020 15002 7519
11442 29352 24182
6395 30769 34963
22571 4778 1412
25492 19591 17589
32736 20177 11124
17267 2368 -2033
30708 3169 -3704
35710 9572 32421
5140 9703 -160
32050 18269 -2330
23392 5775 2460
661 18499 22981
18042 16428 -3629
21524 14557 -1481
17982 20579 -1793
17032 15433 5166
33840 36789 -3607
5165 2234 -374
23309 34194 8359
7595 27103 -1039
34285 7910 -1125
34478 28910 -2945
35724 11954 -3373
29078 17799 7709
31666 3219 3226
34946 26345 -969
18095 30343 22873
16466 11601 -1892
3678 30773 -1446
26279 17063 33993
23523 27347 -1715
31966 25416 20691
35566 29722 9149
11209 6400 8001
36975 25769 -1206
7164 16515 -377
13040 4002 -2851
16360 9634 -1758
27134 9794 -2564
19313 16675 -3107
30988 17028 -2050
24203 10754 30403
695 14697 -781
14103 6604 -1556
28842 2937 -1203
33365 25455 -511
11357 32784 19023
8704 31397 -2392
23470 10100 25242
12263 24864 19390
19772 18572 705
2816 7387 30479
28403 31435 -1790
12083 36768 -2551
197 23463 -411
16034 20238 -2678
27847 5997 -242
19536 26710 -3122
23307 4447 -797
32903 16670 -2076
14555 26922 28137
22211 27272 18727
36212 35392 -1480
11359 12247 14131
18309 26691 -277
13739 35018 35658
30157 9123 22607
843 21831 -892
19384 12083 21873
1863 29095 9934
20557 6317 -553
20438 25516 16175
29729 3331 19918
16635 33284 28686
15721 17950 6554
31882 5591 14486
4369 6550 31714
30979 1936 -3035
20658 25133 -266
17650 23775 -3364
26020 32475 -1274
10263 30064 -171
7332 21714 -3030
22620 12332 18756
5252 36485 12277
34440 4716 -733
22075 11587 18062
8715 31274 10958
36564 1520 -2822
5475 29853 -1529
36882 15212 -1332
13197 28792 20393
27879 34514 -1620
28356 5283 22293
18385 27776 28581
5341 11894 -358
14469 27540 29132
8570 5343 -3268
30646 8797 -1484
23123 31078 -2821
12408 8403 -188
21975 17568 12840
17478 20249 25067
5358 6334 -2135
25853 20633 11462
17701 25869 -2182
12835 31170 18574
21882 29211 32884
20108 27685 9555
18947 24361 32930
17282 15377 2238
14618 23404 17647
31570 25469 -2221
12010 32275 -1746
29714 19483 19588
13894 12039 -858
20561 1226 12012
14634 27807 30372
29552 17426 -3229
18413 27860 -1640
18582 5028 -140
10599 21583 29742
16249 24377 -1161
12821 21014 33061
18490 26066 -3193
15370 16238 26785
6280 19568 7111
32477 8986 28131
34674 31042 35312
17659 17834 -186
35933 12811 -3585
32760 11444 9692
35317 35701 -2753
15153 15869 -3289
18711 741 8736
10326 37049 -3163
24080 3272 -404
16994 16932 -2628
23798 6440 -1946
3038 22895 2321
16682 10000 35851
7454 13197 -2966
31789 8086 19837
21218 5114 -3198
35830 17885 -1040
21323 10338 29063
28914 30347 24615
31354 24864 31860
10855 27391 -2585
26220 20527 -1112
22141 11306 -2632
26640 13561 27610
37349 7720 28358
8034 20060 -2172
27756 13578 15423
10279 1848 25565
36222 2379 -3138
16533 20045 26811
10376 25717 -507
25094 23331 36799
25828 17207 2486
31093 1402 19392
16167 1638 26874
29540 5948 21190
29822 35251 6327
19325 28532 -1421
21268 37045 35116
7489 546 34697
18319 7412 -2326
20163 17305 -2803
8722 12979 -1116
21606 8966 8482
11189 21118 -1674
21595 4260 -3208
23112 21885 9894
15412 14793 3271
26723 5595 -1438
28275 10262 -3321
29792 30722 27794
33445 26725 24107
37128 15802 -1390
16990 16074 33991
37426 26002 -896
18259 5530 11295
10840 11220 -1852
24226 25974 -752
30444 2791 19430
12757 29271 -3031
23028 9867 96
17332 14536 29914
5394 31282 27700
1312 8129 -331
18507 22075 11634
24231 19439 -2366
33391 36299 27252
26772 36092 -1046
18385 7533 -941
2828 22888 -1503
25666 31076 36247
19940 6311 13249
15587 13894 -1028
14131 7826 -3010
20703 32331 29636
28214 19531 19817
21549 34096 -2830
6315 451 3789
13097 20435 -730
2121 8552 11681
3757 21013 -1437
15219 344 10209
19056 18398 -384
20868 1973 35712
16317 13933 -1383
32388 17291 -3500
13851 17355 -396
20023 9198 37392
31655 22467 -832
5870 159 -2293
20500 36508 -3198
8223 36694 -2673
31857 14259 36969
16691 36297 25765
25650 13398 19948
11423 34842 -1671
26490 18349 20497
20412 16082 26417
37278 32980 -1349
21022 4564 25033
13626 8297 29915
36760 34756 -3732
2717 31417 26241
32140 37261 -2609
27556 36924 -1756
22149 6469 -332
10905 34845 -550
21323 31118 37060
8015 9281 10662
1329 10016 -215
29435 33665 10022
32633 982 30031
17797 258 17239
33198 25732 -1909
17479 1667 -781
21467 11259 10454
8969 2376 15969
21452 34880 26402
30652 16525 -3159
31445 32033 14037
5582 37462 -3312
22845 18396 26504
17775 36602 -1662
22609 15011 -1332
16285 34935 6096
9939 1042 35198
35879 25076 25842
4379 17827 -3037
16136 34425 -2923
5375 29099 -3672
9007 10693 -2057
19743 1754 -816
13179 27825 -2824
16023 1717 27611
26720 21207 37311
27794 17795 9502
17643 22681 5740
9308 1548 -1340
12633 1538 23192
26805 9392 24196
22801 34629 -129
18974 34147 30155
10396 9902 36034
1303 33229 23786
34848 35790 -2634
976 31546 -1900
29002 15649 -2758
4640 27549 -937
1122 24532 -447
10827 28363 3889
36723 1451 8169
32708 34972 -1955
12238 6205 5910
27457 18133 -2069
27385 9416 32217
13591 25592 5173
23208 14820 -3455
8539 7013 8630
13477 23476 32182
6212 19802 5925
29694 39 -2585
5956 22865 -2864
8621 34344 -2181
15401 4946 20586
29427 24701 -2742
16513 32526 -650
36642 25349 9938
2136 4293 -3316
19794 6077 27662
24010 17423 -2868
10792 4755 31744
4882 33683 -921
357 57 20664
9796 7862 26111
14513 21550 581
31127 30191 27431
24187 8795 -3037
30753 36789 22474
10005 6689 -455
6992 10321 4956
34191 26689 -1422
14404 34279 -1904
1076 9556 35782
25831 17875 -3540
13991 24804 -2235
985 29325 29745
9483 30075 7306
24406 17764 26164
14137 8084 31018
390 13810 22009
17909 20468 -1836
16412 8246 28102
22995 11528 32339
32976 6419 -559
30030 6810 -3198
30914 7255 -2932
13719 14902 21422
33095 31437 -161
35318 37338 -1565
17930 21407 -2091
32113 5644 -1933
25117 9311 22342
24631 37258 -110
13795 1077 -749
11274 35725 16226
27802 3888 10701
31194 26929 28133
25357 23 -2551
1221 28964 8141
17201 30468 19449
20549 1932 -2005
6783 1555 -99
17260 24238 32672
18695 21687 -1669
37442 24582 29565
17010 2006 -2998
28259 3269 5951
12699 17097 32344
20149 35597 -3701
6942 20293 5687
21778 11333 -3474
24524 5495 -1589
1347 10298 12808
33779 37473 10173
26473 9545 18324
17673 25987 18788
30044 22048 26521
19576 27875 -1931
27123 6642 14509
17063 20673 -22
28556 8698 23221
1319 8500 -3539
31747 26435 12968
7446 31722 -3217
22705 3117 13142
32973 16396 -2081
9553 35660 -2162
26790 4298 35114
35632 25903 4391
32678 7153 28493
32116 16852 -1301
25854 24819 -1601
19458 30098 -1899
12501 35077 -1322
34623 10740 20471
21826 34404 -527
25825 21082 -3593
6327 14141 467
10156 3315 27167
37275 30630 -605
10774 24240 33512
8124 29826 12605
21261 4825 16211
5184 7143 -267
13951 34324 10424
25660 3183 24225
22672 21211 32708
8605 16274 -1725
31349 21841 28546
11436 5658 -3022
27925 28397 -2869
3026 22972 -2747
32169 28067 20482
4750 36927 -3694
35338 33640 18128
9780 27179 4708
19049 4287 -3223
13612 35891 -3674
14954 8911 -1858
9797 10424 -3481
12593 32988 23378
30157 3039 -2945
26964 28430 -3493
7046 33982 17508
13382 7697 -1454
24882 25107 -721
22739 23191 -481
13912 4408 -486
18881 30519 7098
3440 126 -1980
18120 9787 32694
6930 35776 16250
17102 20753 -303
11005 16496 6369
11804 4640 -937
14331 9510 -1524
27226 4801 -799
3845 22129 463
13261 21473 23400
36319 22546 29650
1429 20604 -836
25651 24902 -22
27991 30930 -1091
15849 15780 -2166
4855 33541 6263
32912 24203 25878
24540 10520 17752
24381 29211 9859
19822 37189 11319
27840 31015 17911
37295 845 -1456
15718 11114 36568
22091 23333 -3003
32970 23940 -1547
35877 2758 -245
30075 10275 -1769
14772 31844 -709
3130 32292 8503
20419 26490 8319
30559 34643 -1962
1226 15200 24745
33400 16007 -3584
4182 2136 -2285
33640 10277 -1031
25430 3607 25137
20407 12979 -386
7571 7616 -694
34235 8888 1994
4871 13800 -1507
20475 23780 21341
25949 20583 19026
24366 25305 -1098
35493 34157 18095
20327 4904 -1506
20115 35376 -1603
34058 19906 -2013
29620 4599 -2776
1902 25008 6021
29537 26044 18906
3640 20704 -1119
5193 27154 15024
1844 22962 1656
5675 24268 -2707
15607 12042 34758
1277 33203 -717
33061 29151 2456
36857 20267 245
32699 9382 15408
17824 22087 -3478
12628 12706 -1710
10225 10348 26314
34867 15984 -2560
23363 28603 17429
13326 24950 -2798
4603 8408 17993
34079 29118 12011
14327 5292 -3629
36883 16479 14287
2120 8218 32354
30416 2009 -342
19286 13105 -2313
3129 31430 -3339
32637 15830 -186
23180 15365 31807
19796 17511 25569
35178 28792 16626
20775 34717 1845
17974 18992 31304
8859 25490 -2499
9229 17842 34179
6855 13324 -261
27471 4418 -2152
23792 12261 -3486
37161 13942 -1367
4354 33500 -3318
21282 16730 -2808
25821 27186 -1428
28022 34344 -2496
34851 29606 -2486
8912 16291 -1521
2684 26891 -1536
2362 23610 25807
29163 33938 34787
20108 4349 -743
117 8409 -1032
18855 25353 13789
34044 21285 -3015
16597 32901 10066
17113 17719 -1549
4519 15402 -1129
15381 24430 22502
15814 15482 -645
34126 23170 -3478
23833 25629 -1541
21959 32993 -194
25715 21565 23551
7069 12866 -1641
30718 19610 18644
28639 7571 22546
32458 6970 -2369
23431 18221 31880
30199 9670 -1093
3478 11019 12902
27305 14493 -975
25362 12839 -1757
183 1312 17790
36976 23487 25911
6467 11943 16174
29016 18903 20985
3291 30385 -2386
18287 7881 37195
34417 33856 -2347
5411 12754 2305
14055 24253 18418
8387 12560 22588
4642 36311 22634
4128 28883 -2107
17724 25281 26024
24456 8136 -2800
33820 25807 24828
3491 19494 6322
439 8797 6601
22616 16521 -2193
29788 15011 -1989
5318 421 -1795
30899 554 -3660
2711 31246 -293
22092 18152 -2514
4294 10832 -1163
19233 17892 -2367
15621 20517 33311
30192 33074 -3273
11848 19132 -3689
17696 23279 -400
35339 20177 20126
20136 27154 11645
12383 77 20422
19776 32359 -1715
5865 16744 -1052
11514 16593 -3578
13811 29976 5951
20765 10958 29394
25910 1171 -2266
13381 11125 -2014
4878 27266 -3243
11186 16942 -1199
22355 23357 -165
3230 14766 -1064
451 31306 26494
25269 1340 -2868
21809 19927 30412
19055 9212 24334
6732 27261 -3523
14375 6251 26366
14822 22950 33379
7819 35516 -3276
11774 24590 33912
13498 17861 -1262
4316 30562 -2029
11093 30070 19723
5240 4380 -352
17227 985 498
28982 32510 30749
1499 865 -2987
17848 31141 3926
36321 16379 -1984
37054 36410 27804
19611 37086 23966
16361 16655 25881
24254 20242 24178
2391 14503 -3214
6419 10193 -2334
4642 30247 3124
35485 14006 -3670
15212 29003 32512
13368 907 -3553
32862 26179 -2811
35274 15911 20294
31512 16719 10026
3413 20618 28764
26399 23755 24867
25372 12794 -2178
26212 8919 15493
34070 26541 -2020
36956 15597 -2573
6858 2111 29390
25683 33204 36187
30665 11229 29707
35320 20004 2784
31101 18202 -3206
18740 15374 -254
1621 27306 -1656
30628 23181 -3457
30836 21364 23569
27960 31338 -1565
27846 14334 32654
2901 724 1092
11090 34442 -3404
18060 34797 4680
11967 32500 746
30965 25833 -2103
13918 7165 34010
30764 35648 8058
2284 13070 30130
10311 31064 15054
30897 12672 16134
3431 18458 25691
2653 9404 -3131
37131 27494 -1472
16830 10706 -2347
19481 29883 32870
27374 11085 -1821
10910 19781 -2243
32363 33323 2742
36263 5799 -278
26106 19525 -16
13372 31320 10887
17889 11318 4924
11877 27113 11394
15037 17584 27610
15140 203 24667
33220 20886 -2055
30142 3573 24794
10218 9632 35005
23387 22451 5153
32372 27385 13998
14572 36244 9014
16021 1625 -1908
5959 9577 -1345
22140 7668 35471
27245 20692 -1140
31556 19597 6747
29448 6953 29828
35802 22045 51
10657 984 30527
35081 33140 1402
34134 6526 18703
18678 1199 -1451
3235 20349 21733
23205 23874 8515
17609 19417 12891
37358 37168 -3225
28091 14985 18619
22375 21532 -3637
13610 3724 29508
29811 5475 -480
4894 31250 35179
37055 20645 -1647
26185 22179 -2417
34246 24489 -1884
10213 18357 -514
23117 10153 3737
5167 21768 -2881
12537 31457 6937
32553 15792 -3154
24198 28793 17269
6216 22090 -1167
25732 3382 -2993
6715 7649 33253
5072 6353 -3651
13797 35860 -3713
10726 1062 -2828
21469 7679 -1439
6518 15818 -1574
31836 20163 33408
35896 8003 18724
25236 29435 -1797
10548 29562 -1587
9529 21930 9774
9963 10464 12666
31784 11748 -3668
4122 19862 -1343
12076 6168 -3199
20233 5132 15052
2518 16869 -2641
27356 23808 -3747
3340 27018 -2462
35018 19643 37316
15136 23691 -1371
18028 37260 26812
33503 14892 16629
27225 18783 11997
2764 21372 -290
20830 32128 -674
16867 10758 -1780
6177 858 -3422
27508 16342 32955
2356 17104 10603
2323 30173 -3213
16271 36776 -2546
4169 34176 -3213
17232 26170 9077
8776 12557 -1248
13274 11120 -105
16684 5850 -433
29070 20198 -2737
13946 6958 18748
30210 33687 -652
14707 1467 17479
9795 20377 16471
9382 1696 26080
20055 19109 1951
36638 2487 -1406
32114 17113 21667
26818 19336 -115
35321 10602 26177
21689 22414 473
520 11069 17995
907 10121 6635
6502 20125 -2935
8984 23542 -2088
2663 26056 -3473
4608 34396 2394
8306 20505 22360
20589 19469 -155
20392 16537 -3663
3462 16006 -3254
23263 5980 -3043
7282 10398 -3404
14212 15090 -1864
1792 31678 4476
33593 16896 6818
8302 10978 21387
5661 14640 -3343
4816 37317 6824
12401 35369 -2955
35825 35215 -3494
36799 6480 -3129
28788 16322 18226
13204 30242 33708
37324 36150 35469
33476 4153 8366
14532 19343 19075
7192 27088 11376
5744 10789 21747
28237 25941 -3005
6110 19313 3368
35923 15760 33253
14899 14679 19618
21847 21463 27946
17576 22382 28987
10297 18597 30237
25956 3204 20559
9258 4892 13435
25670 19369 -2064
26475 19349 -1522
5702 17099 -3142
33570 34982 -3652
28341 31030 -471
37254 32704 8228
24077 24770 18621
17588 10401 -2072
31898 30667 -3613
1018 2819 20502
17254 23070 30819
12290 37431 28789
14878 26601 296
37491 20989 31038
35544 15725 126
18405 33705 -2713
34198 35293 17547
22984 23772 15422
11347 1247 5232
31077 29258 35010
17079 6291 3129
12425 27518 -2022
26193 26849 -2281
23315 14813 20890
25275 1536 -2486
27486 15261 -225
3645 11412 -2944
10388 21619 -2166
18147 2931 -88
5227 7735 -3599
20083 19215 -2705
6793 35844 -3387
36831 9758 -3301
37042 4528 -1268
34116 31195 1285
19159 17093 22600
14406 17498 20689
34689 20533 8141
22499 5050 22701
33717 33592 -3235
2419 19203 13234
779 4249 -396
19912 26822 -2558
26941 17789 8581
28986 35982 -418
29525 33663 -1845
36000 1353 -1551
15355 22450 23475
22186 22327 5587
11727 27112 -1967
35761 35548 -2761
25077 28776 -154
8287 28908 -2960
3054 3544 -3461
36172 3117 -361
12403 19500 2362
7272 14337 -2163
24547 34860 5555
7361 1953 3535
18709 15071 12123
1521 14862 -3480
24180 15840 -821
23699 15946 -1614
10827 14143 25776
7430 17073 -2260
25654 21989 -2538
36422 36045 9914
10547 29867 26078
33873 3533 5326
36637 25247 -2338
23210 7837 29309
34834 15337 -2136
25352 878 29829
3253 34527 936
36277 28430 4042
4192 36979 -3238
9925 26711 -2651
32116 13655 -1658
26442 4390 291
15360 12270 13273
14879 31326 -3054
7272 24251 8680
23270 16032 6161
26987 15041 22308
19363 26957 -1850
25399 21958 -2110
7711 33036 2610
35864 15647 23487
3719 6719 -485
9958 10737 6530
5197 22044 -3688
21284 9501 18425
33087 28580 16068
31993 30510 -3718
30537 22575 19469
10623 30592 -2296
24666 17036 9075
700 17786 -1350
5861 22794 -719
33609 16161 34438
35355 23361 -3518
33907 26254 -783
4488 19914 -1776
31373 27818 -522
10584 17642 19841
4267 2399 27786
17000 364 5657
966 28696 10930
7710 24955 -2884
33641 33169 -1629
10543 29685 32647
19652 29302 30618
20481 31681 26756
25750 18817 9154
26701 29820 -2837
12594 28819 22077
11763 30243 -1071
25563 2470 -468
14703 9457 34508
988 23522 15418
33722 29296 29933
29651 32331 -358
3326 2957 4142
27818 23708 -340
23750 248 10925
29970 31452 2308
18157 32813 -1142
6637 10734 35019
25700 8563 30703
16375 6616 -1371
35494 8953 752
19382 36956 -3327
27586 14815 -2840
35856 35858 -465
5921 19399 25132
15048 6124 -3118
3121 33582 28478
8365 20007 -1073
25141 20561 -1722
34403 13500 34733
23678 24488 560
18965 25197 -3597
37337 36965 23225
18718 11812 -1170
19987 20198 -239
16327 27735 -2405
3286 3445 -432
34322 21177 19520
5910 21804 19075
759 28704 11665
445 17559 -2474
17708 28003 19512
271 2768 36993
30818 30351 -2954
3444 26335 -1407
12119 18547 -3222
17974 32413 28005
10844 7179 -515
5212 32186 24511
27762 15686 10157
35453 8629 -2838
8488 20875 -2263
9880 1727 21708
2112 10862 -411
24866 35128 33520
9816 15489 -1346
9054 25266 -1616
29907 1144 14299
212 11486 -2040
37384 11358 -3705
19668 33145 13994
26545 24351 -3
8513 17211 9996
28050 14791 12529
17528 33080 -280
9869 37139 10373
34730 11973 32960
3213 23613 7371
13930 23567 5491
29515 21093 -2554
17433 13969 14453
33873 14754 -2286
10272 4642 -1000
2938 7203 -1918
12160 2381 33313
22346 16610 -2746
34902 32596 36520
17495 8762 -1784
15525 8209 13490
15155 14242 -1716
9783 17249 -3125
19428 35374 -633
12546 8144 -2955
24085 14140 16558
33565 17641 31550
7409 11114 -2528
464 15499 -1826
19048 12017 -2955
11078 21013 9242
29347 11324 28107
16251 19230 9369
23751 12983 35150
7996 15397 37232
11542 35250 33568
22460 30788 -1651
17663 35442 -2958
36331 23899 -2974
20417 26196 34891
25435 23550 -704
8688 6547 -754
16152 35289 9164
17800 10151 -2637
27793 8385 -1951
31213 30666 20865
10264 27833 -1247
20803 6394 -1980
23665 34972 1707
34249 16579 35845
9054 17618 -3638
31724 24529 7976
22534 251 19964
33236 13438 -1586
29479 20839 18447
29495 31631 -346
27088 36033 8673
23867 8627 30083
15284 12000 -1628
20931 24842 4464
2224 3715 -2704
12461 1975 -1774
600 19005 -2429
33123 16828 -686
9982 18296 -3571
10674 32698 -429
30576 27727 -1348
28415 36215 -1040
13582 29055 35201
29312 5227 -271
21020 5497 -3336
37476 15486 -3439
27649 30240 5622
4279 16487 -2387
3771 24727 33471
9458 21512 -539
14931 20206 -2171
28050 30599 -2228
8510 11176 6510
33908 9660 -3040
22472 24864 31566
3008 10109 1559
22695 15738 36369
6953 29774 -647
32884 2067 -1823
21166 7859 12996
18400 36585 -648
1804 34055 -1048
1521 33741 -18
25859 25277 -1855
36702 31533 -715
24086 24364 22550
4500 35482 18361
25915 4444 -3352
15492 35364 -3474
1529 2655 32339
14604 25750 -1943
22803 29447 -105
8684 16197 -1808
36171 23380 18232
13868 18232 -2778
17812 1733 -3706
35684 34790 -697
7027 25889 -2371
29849 35238 -307
25271 94 33224
14179 6196 18798
10596 19403 -2053
20806 32100 34907
29402 16050 32084
16485 10593 -2779
24696 30691 37456
34620 34492 -712
11435 16368 7921
28706 2658 6309
9622 29613 36709
36636 36569 -290
28889 20425 11270
30199 10037 17712
16269 33340 18948
1512 11980 -1829
6990 27930 -2886
25990 32722 -1730
5211 34743 7226
15743 16274 12252
5996 7568 3240
35336 26957 -377
555 27714 -1991
25281 11784 25779
24939 19405 26149
25738 9274 -309
32037 1721 -3036
11448 32007 14274
755 21586 13621
25148 24217 -377
33640 2079 -1153
16447 32216 10944
10610 8365 2005
4470 18407 13601
3893 227 2702
10095 23638 -1865
28934 6690 37085
31500 11757 -2048
18561 26044 15556
8170 22861 -14
31143 22806 -756
15732 25729 37425
11599 6676 1888
23395 36145 4429
4135 13027 -203
8815 19714 -2072
4640 4438 -1648
1733 1441 8941
1906 29484 -3288
14189 37417 18246
18398 17303 -1512
7722 17965 17371
21595 6711 34488
26538 9364 5752
26423 27584 32015
30046 23203 -2014
2183 1128 -2655
5015 35620 -1289
12361 33368 -2459
10615 36742 1762
35792 5163 -1934
30489 34012 -1066
13420 16536 914
35711 37253 -3462
20759 19128 -192
12058 23911 -588
3567 36107 -1832
9994 80 24166
32400 35 10653
31804 17196 -1978
5148 22943 15709
29954 20284 -2114
31042 11944 6866
1334 27017 -2159
29917 13864 22042
6780 5336 -3148
7582 18746 21621
907 25791 12024
24533 2206 -1643
36427 28464 25459
10020 36338 10905
24033 16414 7533
35445 4775 -3326
29227 15045 16601
37301 10304 6671
27596 23367 -1598
25437 1747 -2731
3595 15174 -2865
24163 25896 -3557
8545 22295 -3568
19936 28204 28681
21873 31637 -1470
12273 33178 -2863
21877 18543 -1172
22101 21189 -1255
12280 21211 -2058
11397 3010 28913
25301 29722 32777
11441 33018 13851
27331 13024 -1761
24219 19396 10537
31000 4041 -1929
26228 3768 4257
9171 25633 -314
15874 16547 21814
8078 32108 -44
1986 22670 -2429
35489 33092 11929
7168 24041 -3201
28041 10337 -2531
14197 35955 11309
19781 8649 -3232
22191 16567 23705
9895 32490 -955
906 26324 -3254
19373 21309 -156
34887 22993 14385
4830 1608 -1242
4389 26862 -3228
924 35374 29712
36785 11415 -2212
15107 36163 -2484
5413 10337 4913
20835 23649 9547
4936 30051 19756
24166 36558 29116
29204 1438 26992
8006 21704 17745
15742 1313 36492
17625 19669 4898
34916 32691 -960
5978 2797 -2260
16600 4633 -1720
14604 26868 18849
21750 21749 -2931
21037 3146 -1942
30090 24064 -2818
16513 20883 13956
2060 16470 -2594
10511 21620 30761
20700 1064 27253
37285 5180 -823
20955 1815 -2305
19758 22826 -2839
31409 8216 -1573
28295 21086 -1779
16113 17719 34643
23517 33995 10163
7073 32481 21843
36119 33949 11192
17450 23265 -3433
30940 22182 -3618
30382 30389 -2383
10684 25848 -1371
33909 9087 15475
5565 16683 -2008
151 24502 3939
24540 35875 -3280
9500 12158 29055
9240 5819 25056
15479 33923 -3266
1848 10090 34458
12797 24188 23928
4028 19513 34805
7705 35072 37158
29234 33198 16781
27717 27771 -2295
29497 29231 -1919
37044 29104 -245
25379 37193 -3361
12942 17258 6526
27259 29390 -685
32340 31244 -2388
19966 20962 23510
17145 28580 -1730
21936 36519 22987
30498 29309 -3408
34949 30513 -3139
21798 15454 -2176
7318 34589 27123
35115 4906 8692
26070 13073 11462
26852 638 5956
7794 29120 -725
7859 28096 21690
9485 1673 33808
16189 7220 25768
29490 7330 29460
3504 10607 -3154
13339 23077 -1559
35711 17595 -1260
9320 30407 -1545
22363 12913 8030
31530 25851 15246
30362 28480 18491
20317 12840 20063
23632 20600 12516
22575 20506 24746
4600 12862 -3193
27012 23726 12017
26802 35627 18920
19826 19814 33660
27907 27996 1184
33969 27593 22518
25364 15070 -2858
29843 35388 2044
22247 17684 -2731
32511 1862 5035
8067 29833 18757
31892 29804 16208
7156 17266 11902
14772 30571 13758
1558 15834 35818
6468 15897 -575
9775 33785 -1610
29550 8363 -1158
17997 3733 -3719
3628 1478 10289
32436 14000 19155
24149 735 37336
28132 4898 8964
7813 22901 19735
11937 6593 18628
4713 26088 -253
15881 2619 21530
1403 3133 -3433
372 6581 -802
19556 32311 -1950
35237 6926 31660
28077 31064 -2489
30297 5445 -2419
2744 13593 -1087
23670 17103 22665
26693 28612 -3644
36993 26925 32586
6528 13784 -2522
9631 17137 18746
23574 6653 -3661
20929 11155 -271
28375 13384 15402
22432 16381 19222
26394 12933 -3640
37244 9938 25464
1273 28281 -431
21179 9500 -1443
34296 2843 -1349
34996 10086 -534
2960 7146 3805
25509 6608 24492
26641 26295 16718
16278 3825 34098
24049 30830 4827
19188 14178 28795
22802 29815 14081
6341 5232 27161
14698 16921 483
27923 27257 18387
17621 17807 -3351
11751 11732 20968
32585 2484 -1413
11668 11691 -3041
7281 36896 -395
25310 23848 32559
36598 29748 -309
23779 37340 14994
21630 29150 34255
23688 22692 -185
20748 329 -1076
13970 33664 -1666
14810 25989 -1794
5971 33127 -1754
11439 5511 -893
6094 37467 -2183
32993 29162 -181
13676 6279 8444
37170 16641 -1850
35360 10109 29855
18647 15561 -996
10959 3808 17213
5227 3750 11431
19933 24174 -2134
16653 28192 6379
14068 1680 -3395
5229 13013 2122
10526 23876 29226
26363 19310 7810
9595 2486 -3369
8776 15649 -2686
15930 13833 22641
8753 24800 -2519
11585 15995 19915
25663 7220 11351
26814 4350 -3315
111 17688 19541
8617 12603 5229
16095 28132 13513
18879 32065 -2223
21331 4164 -2560
7881 1169 -90
28100 37480 30478
37491 27982 35100
11403 17981 -2373
9876 37151 36162
18689 29268 -2999
26909 5140 31568
19639 8127 -2836
3077 5945 13627
23206 20263 2601
28779 35447 28459
12436 13166 -2726
14103 35507 4514
28886 18924 36667
21186 10665 -1044
34284 27069 13006
22523 20937 -1901
31893 19259 -1636
11649 23595 17063
6024 19811 -3397
4504 22848 24031
2893 9618 6970
11287 19264 11431
29106 9328 21808
17634 10585 26666
4361 34762 2038
27964 10126 19410
34176 20358 17164
4964 3776 -3682
14714 6061 35544
7465 5770 -467
14199 8713 -2871
12696 24926 16379
9033 33278 19607
13970 23701 34191
12029 31637 -3694
22477 17755 6873
35377 23824 26590
31814 31847 -2395
26701 13884 -3496
8354 29767 22437
30275 32563 31862
31792 6847 -1934
16722 22133 -1504
18281 21164 -1151
10955 11775 33699
23239 13096 -1463
25000 32921 -1348
24267 7486 14064
25116 4244 34199
26372 2204 22965
26581 36925 -1691
34975 10795 -644
2552 24169 725
21309 26500 -781
6583 14442 29346
13345 1957 20194
25468 30604 28005
23873 9983 -2968
27923 24175 34448
4854 24024 -1498
31975 1969 -1519
22684 741 9459
6227 1639 -646
6790 33040 -2229
26121 27108 8732
32063 9142 3127
7525 10736 -262
29208 36765 2545
24967 30900 1466
28635 5889 -382
16549 31527 -842
10761 19937 -3592
23031 10835 30074
22003 3825 -575
36441 11198 24006
8286 9713 -494
2955 6487 -3116
29369 1779 27978
4648 36666 32637
25802 21888 14855
33996 21750 -209
12727 16900 7369
915 13228 -943
27138 4669 -150
34109 14645 -1493
21738 20444 35769
28964 16080 -3461
34105 6498 20581
33470 18819 -3679
19036 27855 -3239
4437 1749 31575
14748 5889 23833
34244 11412 -1614
7594 22847 -1480
23352 26599 37430
31169 9224 831
19711 18620 -1907
31898 10587 29688
8750 24612 -2003
5676 32595 9640
36084 3891 -688
32168 2365 33133
25175 21849 -49
28370 1127 -2742
10467 33472 -1186
31438 19217 -1321
14562 32090 -3498
3036 18818 16660
21442 23405 -541
30275 1829 29470
29442 35778 26882
21950 10218 30188
32956 26626 32509
19404 26729 12661
34050 36823 -930
23888 15598 -2603
26651 28406 -2582
3732 33825 11920
29808 23339 944
15364 26045 31660
12736 17953 -388
32623 7628 32054
8152 13956 -1135
11603 14018 6045
32487 31572 31049
2483 25822 27793
29342 2060 12639
25958 2519 16714
20753 3616 -19
5495 29931 11999
32234 7466 4572
30401 3377 24322
24434 32082 20153
22065 30627 -2566
36694 2631 -1883
1111 24305 -2569
34444 28507 18799
24398 7021 -1062
30917 2168 10893
36811 256 14825
20747 34390 34357
8401 7206 19613
1941 35524 -347
5949 19208 -3427
20389 5684 -1619
37447 27118 -2297
33421 8437 21586
34887 3476 5493
32361 8301 -276
13740 31847 -3195
36620 4856 -2388
14549 34657 16208
5150 20928 26001
4792 4281 -1079
14138 8667 -2900
28216 32861 -1637
1805 10215 -862
31935 24287 -3409
25395 35326 -2283
19736 18256 -1211
18347 21313 21526
22516 32843 20983
18575 17439 905
15611 24463 1212
20309 7437 7213
1853 28790 -1686
17426 25001 -2982
9908 32432 -3298
10081 37458 34551
16026 28398 21213
34009 11953 12380
4895 7431 33288
27984 11078 -3688
6746 32741 -990
11730 17964 31619
34305 19628 -274
9663 29066 2054
738 1075 29660
13700 17040 18783
27957 2157 -2010
10620 21298 6406
14457 33079 10569
30629 17925 22235
10629 4812 8245
12594 17362 20373
34920 18429 4903
20322 14347 4216
11073 18946 -3297
17903 5121 28602
4457 36273 -1486
24072 7045 -2332
21274 3114 -2057
3529 5406 23028
31900 22731 -3382
847 35780 -2370
10311 15312 12856
8718 31579 31215
10942 33470 28577
13201 18835 36823
9455 16966 -1933
6936 34220 8663
21446 135 -341
16334 5851 9502
33544 4534 -2834
33918 1731 30572
5248 11778 7706
11608 26100 -1552
28654 29652 2894
32093 15010 4719
4926 24716 3354
24674 27387 -546
8861 9040 -3602
265 27910 15264
10953 24925 24528
21670 18440 36480
36266 7524 -2040
11254 8207 -1790
26247 30354 23304
6161 15570 -3591
30140 5113 -543
14726 37089 -3415
4385 25348 5246
35197 5580 35027
29244 23102 -3689
32312 23821 5464
710 11434 26661
17466 25520 -1710
27093 6024 7822
874 15808 -3190
37325 10056 -2818
18029 16248 31639
36299 36023 30299
633 5890 -3392
14669 20913 -914
4412 2978 13775
25168 12739 -1576
4347 16156 11041
108 19533 -3584
19476 8876 10990
6301 24332 12223
30679 10700 2606
30202 4340 1639
25540 4536 -3496
11517 19190 -366
3238 36589 -2810
14896 27240 -3584
19067 14928 -3493
10687 24507 193
27587 9928 -2561
10691 12613 27093
37050 8399 -2135
35381 31821 -1087
36662 18528 -320
6320 34933 -2015
16135 887 20799
3239 5210 -1568
12015 19328 28753
503 26604 -1708
20393 19092 37445
7250 26910 1069
36673 15733 -2674
17058 13971 -126
3883 17710 -654
23795 19385 -724
35109 12769 37179
14023 10484 15354
14668 19560 -2546
33535 19924 12619
25059 7797 16937
21595 31673 -3691
28635 28700 -2906
22048 15292 22319
12480 22779 -2594
24121 33636 -887
22597 33714 -929
32036 19346 3842
32350 31685 32756
13207 34957 10211
29571 14294 3143
31699 4088 32660
23389 27236 33107
19381 2917 -251
10638 12105 -653
27513 11379 35780
653 22757 -501
20625 30998 -704
18831 7063 -3715
30432 32389 32211
18784 10471 9611
36433 1080 31982
12309 30116 -2841
3424 8423 26969
33706 21666 5701
21641 35744 13952
35945 23487 27052
7334 36219 -3672
31781 35075 3830
19488 37237 -1584
27141 9208 16495
23477 2447 16752
6069 12984 7786
26895 5769 -1500
15063 21851 20623
26202 4139 4978
18144 22534 18201
19108 30484 36413
460 19437 2671
23623 11166 -3231
20250 17591 36701
14948 30924 -2034
28451 6285 15268
36448 7206 19444
9843 13316 23148
2058 34097 -1596
410 32520 12415
14405 33762 -1837
35170 2919 29580
14513 19853 -2839
1012 11558 -3269
32448 33844 -2350
10339 18757 -3409
8837 7207 3213
29986 16597 21017
36150 25627 -2609
32696 12826 -22
24721 4111 36375
25719 4343 -76
31464 9762 -2619
6780 34421 19545
36645 10021 24255
25320 14360 -2400
27102 34796 -450
16506 5715 -926
2334 22974 14951
20340 1949 -584
22108 19735 -327
31925 25784 -2538
4921 14512 14990
27509 35760 -2041
17118 28089 3269
3883 20503 -1085
28922 11822 37358
22642 2474 -3005
6869 7974 -2838
35210 14895 -34
11655 27581 31281
18383 33213 14108
33088 19888 -2642
36097 14320 29572
17215 16293 -2631
19513 9428 -2412
35144 10716 -1488
14724 12939 37485
11375 3592 -1886
30608 30997 18027
2695 6866 21142
14280 5722 19692
11326 37143 36020
32857 26517 -381
22985 19145 -2399
1521 27167 25967
5498 20878 33694
32259 20769 25331
16697 13414 -2540
22593 5916 -2473
20872 244 9404
7129 14783 -2558
26965 20732 2847
29438 7648 15340
21331 29854 11559
28299 7101 -1082
33548 650 36812
32860 9573 -1449
31993 14617 -693
29717 13050 29592
34987 12815 16163
26961 17719 31503
10882 4179 9282
29167 30102 -2468
12185 27601 17976
37170 30798 -3021
7617 8620 -1505
22156 18887 15525
30915 2410 -18
32606 24516 31587
27625 21706 368
19262 34319 -663
16828 18421 -1781
1688 37354 7053
14781 22156 -2603
10616 27045 7607
4231 102 -1764
10636 19744 14096
1269 33444 6910
36779 21697 29788
3093 21610 25210
36406 17545 -1759
3691 17066 -393
33955 29692 34440
29805 9153 -236
30901 2818 -1002
30620 36779 -1935
19361 7675 -30
5345 14231 -3343
27825 37167 36364
6463 11329 5434
6930 11513 -3103
27029 793 18609
9226 13923 28243
17970 21714 5473
17467 23654 -2842
22616 16241 -579
6571 3865 15775
14462 7892 33969
30691 35315 -2408
15572 23778 -2336
640 17897 -1643
36321 16313 20528
14160 15524 23940
36318 31414 -3510
35853 35180 6196
7340 22215 21833
29042 14191 -3529
31004 12526 -1851
20156 5893 25643
3029 2564 -1055
37431 23447 -3584
23493 24741 -356
35262 7096 -3220
29171 33172 -1337
26436 33869 -2490
8522 29162 36178
32361 29474 34884
24751 21776 -3278
4233 31569 -1197
7736 31158 754
3119 24771 -1425
26852 9478 13641
4832 4474 -2295
28351 26899 12893
4846 26473 6985
16587 8733 6014
7877 34249 7463
28662 8167 10348
26794 3173 -2731
831 17777 -3541
24732 5449 30740
34385 10246 1273
7465 15108 34909
7169 19936 -2251
25221 22138 -534
10847 12957 -3276
20541 13700 -3383
13863 15317 -301
13893 6960 33048
12278 28074 -1856
23815 18166 -2414
25908 18245 14400
13567 34795 23294
23778 20048 33793
9352 4485 5347
28535 10930 -2969
3034 31238 35375
1544 36807 29117
6771 14744 20004
25512 8961 13779
7776 22725 -856
33561 21773 15950
22099 14270 16611
5502 29600 10693
17121 19806 1173
15863 36758 -3057
3593 5402 -1254
31698 17993 24182
30706 25944 34326
9605 20555 23848
476 7803 7835
17067 2430 24665
18137 11765 5083
35221 9120 29713
24559 5469 33050
2491 15328 18009
1539 35835 1818
22790 1815 -1184
25735 1687 14550
5959 2673 20670
24636 15797 -2225
16811 18698 14257
24791 1767 6626
28938 7724 32662
9745 21427 -202
10011 11375 -263
8752 19165 -487
21366 12612 31822
22983 37035 -2988
25686 6783 -376
4205 19198 4255
17597 34817 5582
4067 27228 -2783
21601 10264 14111
22190 1679 25218
29458 33840 2980
10869 16262 30447
3051 13570 19136
22919 11446 -323
3547 18624 -143
36729 8167 -1193
14336 35465 -2024
24382 19244 15959
24302 15516 32190
9805 29645 3374
26444 31788 -3153
32391 21013 667
22200 30751 -382
7346 21650 15073
17423 14481 -1563
35039 11468 27568
8776 16066 11737
6098 18857 -1643
18393 16481 -2110
1956 23175 33270
35252 24209 31642
12336 25078 -2436
28001 1981 33932
32954 34771 10368
13079 17172 -2768
36593 12632 -2236
31432 33806 4469
2812 32651 12356
2822 13722 -1429
15617 24966 -2943
25317 22488 12115
18859 20857 -2969
2406 36502 23088
7598 13559 27335
4984 3432 -129
22182 1017 19364
26042 1177 -3681
17814 22540 34772
20398 20595 -1618
6721 4225 20621
14140 4542 -571
1568 8755 -1436
28247 13329 -1975
34951 17146 -2654
1436 22567 27991
9397 22081 -3086
22991 18384 33432
14307 2656 18189
32842 15343 13092
4377 12864 26204
28155 26962 12337
30043 31596 -3383
378 36231 15318
27959 7537 10194
34947 34498 29322
27984 34203 -1198
28545 16377 -3546
33244 4437 14941
27186 36607 -2714
24442 13989 29466
5325 18497 -3461
36392 20870 -2180
8574 26525 -3643
1087 2844 -2225
22303 4 20575
4297 30715 -3201
4793 36849 28947
10718 31395 -181
21454 28987 6482
26970 12286 11842
10394 21360 22862
30955 17076 27882
5667 22672 10931
12850 16644 6409
37115 17910 -119
7477 28651 -1987
21064 11478 -2459
9701 21395 -3119
4657 25346 5352
27792 6552 25594
35331 14506 28723
7508 3990 -3340
33129 1329 -2476
13203 1669 -3108
23761 8829 -2311
28072 4621 -3339
29736 3879 29099
36857 32131 30900
7937 2593 11845
28791 21679 -3617
9498 28847 9929
28948 30268 18543
17513 12616 -1771
773 16652 1513
22637 18390 -612
7164 14354 -88
34134 1938 28680
24194 18212 25185
11922 15000 2451
30723 18281 -1784
1194 21964 -3463
31830 7836 -2525
32022 16893 11039
7033 15493 -923
19348 3298 -1833
23203 18510 -3395
36260 14447 -1528
12683 10000 -1197
4223 18785 -3351
7733 26081 31000
20017 24325 -458
21884 328 2181
35881 3852 699
18273 5985 37411
24303 14706 34686
32921 8454 32963
37480 18170 -1184
3610 17237 -240
19080 21568 -3014
24004 16768 10949
24073 23558 -52
18182 11184 29774
22293 9798 19801
9398 25453 6242
8097 27340 18859
31508 22593 -2613
29482 21266 26081
35481 1752 -227
16009 9393 -3035
33689 16634 36382
26037 7692 23892
34720 16175 4988
30284 19582 -2069
35 16327 8293
4018 28937 -1469
23753 30409 21955
7829 11386 -2224
36546 4752 -1827
4416 14297 6653
20458 13151 -835
9162 34411 23667
8487 14750 149
18276 28660 22635
10080 12599 9300
33875 5786 -544
1250 22758 32224
12396 9989 121
20825 32566 -302
8483 22094 -1964
10167 10126 34156
11080 811 29356
21402 26928 -1350
2696 32382 -3383
14296 10728 15820
27371 18081 24711
28367 31998 -1168
11648 16017 24543
12214 18206 -867
25372 32938 26318
28870 14181 -3189
16101 11369 -2957
22135 27424 -651
5703 14153 -3547
11862 7698 -3321
32194 1531 25449
34509 34299 28992
2904 14441 -1163
35158 9700 2071
22476 21733 13313
9714 3072 18606
19543 179 37247
4060 29293 22999
3098 18814 26267
36127 11716 -700
28978 29618 21063
1218 14237 30260
13749 23403 -1273
35029 12589 26907
35273 12851 -162
29862 8160 -987
33832 9540 36004
344 3818 -3397
6119 10256 28862
12372 13951 11575
36500 3087 -1873
34365 33012 -3610
6109 32410 24441
35262 18290 16800
21803 14508 -6
11451 10890 8989
22188 9162 32711
1973 30099 -3319
15891 24317 -746
29626 3572 -1339
35548 12735 -81
18407 17860 31766
26368 8526 2646
11054 23019 10916
16271 13279 -924
11138 23740 7501
14667 8645 -2692
26266 3627 -1728
36611 7344 22951
8304 23316 -2458
3110 13217 14205
33933 5586 -1887
15889 25338 -2283
3822 30871 15775
7073 15736 19576
7351 19952 -1569
10283 28671 7134
29715 35226 -3606
14783 34314 -315
30657 30839 -2233
16384 25289 -3229
23195 18264 34927
11291 35457 -1905
18437 26368 -1907
34366 30537 -3547
29477 24548 -2802
13388 29064 -3196
6347 20539 10096
12683 35399 -1227
16008 7280 -1371
14074 13903 11219
21380 14590 -2640
12558 29639 16718
8527 5183 19661
31979 5231 28205
24765 26666 10741
4205 30695 22860
33279 489 -3716
16622 16157 28048
9902 19607 8661
18070 7713 18650
24810 1381 4732
4785 29917 -376
28168 11919 -1524
28435 17400 16786
16143 12207 -187
8122 5252 32000
23553 20036 27691
27573 4687 -219
16864 30644 -3194
15226 18761 -356
35699 32371 -1516
30445 2604 5134
3720 34590 29630
33357 28693 -3346
3863 17966 37107
9623 33840 22038
2111 28587 -3079
20057 12522 -1344
1916 13864 35628
30899 8488 1648
13622 33724 2349
7605 30465 -2322
12288 12572 27474
29212 23364 13820
7490 26168 9235
1447 18850 -1705
12995 1429 -1011
18030 17043 33926
23556 12860 9106
13594 25613 9737
34850 1845 -2591
3644 15941 -581
29815 19190 -26
18010 28417 32352
35169 3775 -1517
18589 9641 -1989
36827 33738 -455
8438 25258 14307
27957 8999 33931
9318 18226 -340
12540 12391 -316
10064 16519 2337
792 17786 27320
25753 670 4633
30287 9288 -3356
19039 33997 -2238
28360 11982 -3564
31803 3157 6697
1319 8374 -1573
33956 20825 30213
18941 27410 -1671
24700 13239 -2639
4872 22951 30700
8827 35147 -2662
31954 11619 -583
7028 15684 -1344
3794 4576 32635
5589 28100 3557
29521 2827 19005
19550 35796 -2310
22038 3145 -3015
11827 21889 -2090
15896 36549 20068
3166 9143 -151
3564 25406 33117
17948 3227 37007
3510 31602 -1628
2992 4007 18752
30301 3506 -47
18571 36264 18581
17403 32480 33684
400 6505 -2270
19148 23703 24768
23974 15533 -1975
5316 36261 29908
29275 11750 36264
21379 36226 22877
4906 29679 -1200
29876 23362 13609
20749 11948 24109
4372 21741 4795
17397 15986 -1055
14855 37244 7061
7114 35180 -1767
18386 30120 -1020
4143 6468 35851
17836 201 6618
6884 3630 18405
23296 8304 6128
23517 1382 26245
30487 34400 6851
27501 16762 17656
17829 17484 -3118
17635 3836 9065
20571 7461 -591
11068 5491 -3216
686 1657 -3051
28663 31427 -2439
24420 21925 23919
2955 12106 -1715
34262 20157 -175
32409 24502 1064
36198 21980 14247
35159 4751 -1977
9957 11905 -2484
13252 23465 -1541
8248 37446 4283
5194 2835 24027
11171 1076 -3328
28392 16717 -200
18015 11807 -1184
31067 26114 -1617
9013 16983 -1326
19360 24099 -2542
19860 16274 -3506
13140 26567 -2672
29164 10411 -2613
6753 37093 12536
27315 28195 16472
23236 3588 -1436
17523 25686 28153
7362 27106 -2756
27445 320 -1550
33377 16770 -2930
21432 8853 557
13142 1396 -3305
1183 19840 30792
10899 17357 -1194
811 20240 33558
31418 25842 -1285
10548 32580 -1212
5339 4437 -3455
27603 21496 13755
35980 8081 -115
36079 1334 22931
20 24253 20987
3342 10226 -3741
23876 7063 -74
28826 32038 36592
23182 32779 28246
37377 9619 25498
12991 6382 28488
35352 33986 -463
20662 20666 -1312
13020 10675 12540
32680 8911 -1877
20474 6618 37422
15272 741 11955
17255 32099 -1661
30640 23957 -2291
24191 29428 27115
14313 18732 -3168
4073 36031 10880
10933 6692 19958
13682 29608 -3521
25533 7091 14500
27376 15568 -632
30308 19406 -853
28161 11917 -2169
7843 28598 -67
14837 3296 -920
23397 11647 28803
17518 17767 8461
20552 16478 13233
687 31439 779
2746 19724 -2786
934 5344 -1190
35011 16332 18759
945 25891 31154
25823 14519 -1689
24209 34785 35465
31570 23831 -2919
16376 9221 -1730
29218 24623 12238
29842 17871 -3596
35975 22490 34673
11260 25411 9871
20374 29999 19592
6103 27489 -3735
35261 29983 22846
11334 14549 4312
12557 26734 11483
5416 30865 -1184
19858 12218 -3573
19204 23390 20550
28709 9909 10703
33474 17526 33620
36431 2539 -1780
2297 4877 -1645
10275 29587 24633
4611 27647 4318
30167 25387 28567
33813 29340 987
7438 4184 25460
27536 35265 -885
943 3983 -687
6808 32589 1444
25811 13374 24847
1227 18361 -434
29795 36263 29452
6156 13861 32654
22551 22641 -97
8957 35588 -2683
28330 9633 -951
9896 13923 -1580
744 31619 -2430
20529 27860 35144
6214 14659 -2636
27592 33400 -1531
36177 28247 16852
14784 35114 -3576
15402 21458 19172
23926 33880 33242
13906 25069 -746
28297 31593 -2935
33794 23116 -1905
13976 22531 -1600
15390 4326 -3653
30184 28466 33513
15891 28507 -280
3682 1240 -750
2087 35004 -2942
25324 13104 6385
23594 28579 35036
32329 10803 25233
9531 23393 -2730
14696 36061 -3335
15158 35883 4320
22748 37363 1961
23627 18933 8828
25030 10244 -1037
20464 20900 15361
28984 17415 -3270
28834 35997 30702
13523 26675 29476
34523 18568 35959
17529 27664 -1518
18306 32528 25382
34712 28102 6437
24645 35057 -1240
33561 17228 -1712
9665 4701 14908
35422 9010 22324
28375 36139 2143
14544 14521 -1369
1455 14491 -1907
26248 10078 -38
6010 35338 -206
35259 5284 2486
14475 13510 -790
26291 30549 -2111
35578 19313 -1496
23596 25275 2792
31415 19229 30103
778 25196 -752
32326 22285 6134
4645 34672 -837
36339 21512 6521
2705 13070 -3197
36925 2472 34848
30990 36313 28107
33847 10453 -2350
13905 32006 -1608
4934 12078 -1078
1483 2696 878
35389 27549 15117
4466 35671 23831
34169 20397 -1244
8381 8846 11735
17163 35942 -2206
32323 15929 13902
6242 17442 17609
26073 32476 -929
22072 32416 -3465
3869 20351 -3270
29435 5524 -3732
1512 15825 -3514
22032 11800 -1034
25111 27246 -2332
13939 32539 -3346
3654 1565 -2644
4378 19093 -2891
22187 17452 5981
14042 34829 -1796
16514 31709 -663
25113 16672 -2674
27303 34853 28952
10721 12187 -384
7592 24510 -2007
36337 5257 -33
7015 9339 4678
2958 16874 -2770
34450 36101 5174
2748 4126 -3081
30855 25684 -2133
3300 33311 -2992
2019 8821 -656
1224 171 -2287
28863 24363 -1197
8366 22702 23311
5312 36175 8323
37232 35277 -3443
11348 10511 14877
23865 20279 -232
22556 31019 27341
2199 20506 -2902
31887 23116 -934
6158 17448 -2893
14030 910 34625
4749 26088 32209
22292 36674 12901
4068 1645 9809
27163 7012 -1962
12238 6075 -361
24903 26684 -3623
37440 37472 15335
10849 17356 -987
9268 8921 -524
22347 17768 -1621
36394 30909 21196
16168 16976 -3250
27909 20224 -2775
4639 8768 21476
16804 4747 15089
27645 35146 34852
14692 22633 15482
6365 29623 -1686
15390 34821 33399
1364 17608 -1457
1693 1351 10385
11034 26117 -122
8007 8929 9693
19293 9610 34441
20347 21905 10999
26194 14578 -1500
35514 29305 3399
25275 26595 15888
19252 15048 25552
32474 29654 -3544
25355 24839 36234
6275 13794 25710
9722 16621 -3330
29435 36685 10637
14762 11826 -1218
25657 10675 -618
30941 32696 -3090
21536 13908 4615
22591 7835 16120
34 24204 -249
23923 31437 29682
7567 30450 2011
21387 5945 -2225
29200 25372 25307
19955 27491 4294
29330 21403 21019
11472 17463 -3047
35853 27222 -651
14498 35446 17110
31135 6240 10516
3231 36467 -2721
8257 15992 -3580
1107 10467 -229
33896 22153 -3080
25961 1615 6074
14614 9957 -2039
28914 17082 3704
30115 29062 31228
17588 23248 -2523
8834 9927 -1669
8716 17440 -3744
18594 15528 19999
2983 4000 -2389
21149 33706 -431
20781 30409 -1299
35330 7107 26273
12059 11881 31428
30957 28277 -242
33283 1036 30900
26363 329 6493
494 8848 24845
10349 35905 -1718
34610 23902 -3527
18786 1194 35594
35025 28511 -3230
4538 31275 18184
33823 31481 -3265
33810 26366 -1040
23435 10384 5199
27481 37473 -2685
17397 33145 7690
31604 11220 13830
30693 24009 14542
16333 7565 34903
3276 26706 4617
15094 27530 -3542
11326 11324 -2811
31405 4387 -1665
21701 17992 -6
31022 3035 -1085
7068 25862 -3662
24162 5016 5119
18939 18975 -3215
29077 28964 17239
21609 11079 5810
23060 19850 -1963
20524 4960 17719
15738 23849 14425
35615 37114 8296
13519 16501 23639
10141 19497 6794
25703 15854 -2688
21191 17581 -1733
31629 2547 17547
10323 16486 -2102
33125 25507 -2922
1432 4792 -1517
30784 3784 20143
28027 14503 -2128
19366 1467 18129
30311 21844 -1695
36706 21448 -1055
1100 20391 -2324
35220 2882 32012
24383 29879 -3505
655 35715 18418
4259 3248 -1609
9673 3281 27612
13794 23209 -283
9818 34261 23384
35930 9517 -3012
16843 18704 21091
4365 30480 -1185
32548 26498 -1509
22532 3038 -2414
26170 4283 12973
19634 33680 -516
30901 31128 -3302
10905 27482 20255
25270 5955 -232
9996 6433 27105
36395 37368 -2142
16563 12287 -2107
25787 1589 20121
27941 5044 -1453
30926 274 11985
32219 32039 -1962
26169 16400 -2149
27927 30592 -623
32789 26727 36019
35236 16659 21016
13313 11856 -2891
9034 33972 -1378
4239 13464 24519
4936 7916 -384
2163 19390 31324
7665 5990 29605
33888 35707 -331
36138 7538 -3489
14577 22443 31018
22817 11288 23401
33091 11952 -1072
15159 4131 -732
9948 34103 238
17605 3959 -3589
18531 20720 -2185
35790 472 32956
1597 18671 -1718
10178 19350 -761
5518 17909 29188
34254 20091 -3158
24251 27103 -1646
6702 75 27489
20083 20413 36600
21270 16141 -540
1317 23377 -2750
31770 12843 -1461
4378 10143 24606
32950 35264 -1067
22007 23029 28421
11181 3168 12818
36856 33110 -2018
5683 33769 -3292
25587 33074 9161
35805 8548 -1173
4169 31414 6964
339 11525 10771
19879 10393 15376
774 37487 35315
10560 1077 -199
11107 3321 -2900
17904 7437 14393
5522 7421 -1921
10691 16989 -317
20567 21474 29536
14049 19446 30756
16198 29955 25285
8195 1101 15512
310 16477 36143
21886 13368 -375
16094 33706 -802
19183 36078 -943
33169 19148 19391
14602 37331 -3011
13093 25333 8136
32802 32334 17533
27509 36728 -1053
23544 5643 20536
7147 11512 23339
27203 18607 18546
18692 2682 35405
36641 21139 5795
18657 9140 2340
31961 34939 13438
6034 22724 -204
5657 18469 -2291
31953 4165 -2606
31723 29185 10549
27287 29379 -1312
29836 20000 13178
21015 20778 -846
6782 6606 -780
25458 6062 -2623
2340 10351 -708
22205 2058 -2020
26608 2517 8470
15102 29346 729
4525 17204 -2533
23892 34338 23564
37136 22196 -3384
24634 33373 13670
31150 394 30012
18294 12498 1236
17344 19789 -411
12703 19216 32010
35391 4907 6078
34257 12864 -1247
32670 5978 35435
28811 19665 35483
25686 6386 1909
33187 11019 -1096
5932 27846 -3442
29919 30315 -3390
20430 28110 -1559
33778 31642 15351
6921 2715 -1388
6723 36000 -423
22669 16015 -791
36981 19052 -301
36451 24403 27025
15365 16356 22682
16295 1910 -3498
31000 2410 -1765
27442 29467 10612
1214 19241 33960
14543 32902 -568
29485 15966 3119
1811 29678 34416
27740 37314 6980
21826 34530 35595
8677 20971 -1217
29388 3375 -3042
27978 22664 -294
34133 22790 11050
21040 35466 -2634
18857 23499 -1974
14185 6199 21727
27906 19327 -2266
13636 32699 -3202
11211 8255 19825
12391 22896 -3474
20805 31366 21437
1196 22844 -205
13383 2026 32343
19034 2605 1765
29148 22520 21863
4462 8838 9582
33906 35217 22940
11119 16659 31178
32091 22045 8449
20691 13784 -3422
27204 16710 29824
20325 11495 15598
26705 645 -3330
36313 25055 28211
26268 19588 -350
18262 1333 -19
6125 35065 -1603
20912 12039 3607
34890 24174 -1939
30483 20192 22598
2581 26133 -2669
10665 26290 -2007
11553 19706 3932
28259 31168 -1058
16794 5406 6765
19106 35556 20477
23322 30033 -1561
4622 22838 -1510
7473 7156 -3311
6891 34487 9074
35674 19251 -3280
20228 37038 -2018
27828 6824 26999
25946 7745 20964
2512 36051 -3243
14469 21172 -2564
8380 27816 26629
15236 36382 17034
18744 13506 16545
19736 2862 18482
19158 22762 34152
1588 33413 -2746
26350 14032 -1844
19746 29788 13309
32159 14573 22445
19090 18958 34654
23603 29804 -1184
5476 4778 29974
9661 27371 -2945
34024 10883 18158
7482 9148 13445
6034 18669 -1954
29677 4049 -1880
7443 18755 -680
17329 22420 -1341
36408 26586 -511
23951 16842 12299
1018 28346 34317
3898 10604 23588
18916 8012 -189
16928 36732 -740
6801 12051 1086
24073 35712 -1764
7355 4532 18611
31255 7589 24997
6874 17582 37345
10135 5593 13194
36777 36797 -2918
4374 33380 -2393
11334 36641 -549
11369 9315 10614
14885 4553 -1662
17157 17500 -1527
24642 18809 -3232
36569 5705 -3099
1697 12314 23789
2573 22509 -538
32221 3777 -768
19965 1440 26977
20140 22299 -2198
30194 24645 -664
10375 20675 5409
3580 11684 -3269
4736 35568 -549
24188 35245 -2868
19809 23917 -3033
24340 13253 19926
17607 29321 -1677
9428 21679 13004
18030 12644 26286
23651 35400 -2336
18371 27464 -1607
13147 34118 14222
36705 19186 -1211
28849 32220 8597
30003 2016 30257
28740 33721 7789
13292 24532 17074
28445 13629 3261
25196 34409 37015
18719 23387 -1070
34604 30786 -1143
18405 33337 36562
8203 32226 -3743
1344 33872 -3517
3523 14149 -3387
35140 33399 -2717
2918 13653 29913
19135 26400 -132
27397 19166 -1808
37288 11180 29288
3481 33442 22674
14867 29154 18093
18332 31265 1500
28923 22084 8343
31786 4090 32287
26491 10855 -3099
760 21537 -1254
29806 8517 3242
10827 29299 1084
3062 27147 -1803
14404 7724 16359
30703 741 -831
3217 1417 -2880
21040 2425 6738
9843 9985 10378
23697 11707 13601
5579 35336 1327
25108 30457 3784
13192 6881 12468
17349 30310 -1843
24544 13094 -1290
17072 10809 28008
14187 13826 -3224
19920 32635 20343
25845 13830 -3296
22995 20698 5231
7066 23471 7637
1697 13779 -890
22476 7530 36634
32426 12117 -219
28193 35479 -3728
11953 18057 12876
37311 18696 -2089
17568 26256 -1554
2031 15251 -2057
25003 6467 8588
16725 11357 -217
19476 6307 21765
19864 36980 27227
30353 20942 19034
3497 20625 -2775
3829 36270 28073
26824 6184 6870
17153 30047 -559
20455 21838 -2469
36790 13682 -1623
8013 22726 12413
19360 13097 -1765
28569 32050 21
28077 1939 -2030
12194 24009 30194
13585 27501 -2620
27337 35208 13045
13270 2555 -2268
11596 35314 -1419
7099 34795 -186
5786 20235 -1450
8925 33634 11258
32818 33691 6137
20968 22212 -417
18824 12746 -2428
22056 37391 -3284
3346 1105 -2261
8277 2106 -405
6380 36625 -617
7880 32461 4178
20149 6628 19471
12726 14292 -3023
11793 30064 5967
7831 33571 -39
6043 27799 -2722
19515 23870 6165
35978 30332 -620
35678 28053 8914
29649 35784 7218
34493 35836 18401
16474 14282 37481
32487 3682 -1150
18690 16688 32516
21455 21939 15298
8767 37494 -1168
27267 24526 -1500
7681 12651 -615
1524 30042 17150
30644 18862 -2512
9795 18104 -3505
1829 27091 30387
4321 21149 5250
3395 4608 -3355
11550 22437 24749
27286 12222 4278
10646 674 -944
9204 28101 -726
26555 27308 -2963
30791 15802 26465
34036 1284 2708
13154 37317 648
27907 5572 -3558
7647 27073 8230
16450 10772 -3050
14796 29487 -1538
36596 4007 31061
17338 33133 -194
33924 1288 -2136
571 27279 -930
31795 27583 2356
25373 15133 29878
2124 6485 16884
33296 33392 -2374
14037 12711 12725
12994 28214 28550
15616 5164 13739
1152 7188 24569
22800 29931 -3264
21130 22365 5008
32418 23199 16512
21448 27326 16061
6601 12778 36171
1460 4996 18480
15874 9439 -85
4889 32986 -1614
939 16350 -751
17385 26305 19098
9608 21063 36728
30306 31976 12833
19091 1137 35894
10068 6002 -2254
29124 25193 -311
6491 36024 19712
12540 5082 -3256
22838 26054 9461
13775 5083 -2377
17216 30686 27140
20774 27222 -916
7646 34243 13959
33030 18214 6132
16008 6086 -404
32943 3806 36308
14357 13902 -2940
29072 21018 8476
14334 26263 31037
30439 5883 -2119
30018 34513 -2216
34809 14545 -3117
12263 32426 14631
31913 4058 28100
25087 4018 9987
26064 23105 36056
34355 3858 -117
11989 7628 -2541
6535 9438 36536
7336 23419 -812
27106 24223 -2618
23274 8776 25480
14571 31628 -3007
29880 18420 -1247
18434 30102 17542
35920 32065 19602
28502 9133 19614
6582 6203 10415
28773 10639 -431
8826 25743 10012
36170 15882 -387
26625 24202 1210
18191 9910 32699
7858 29968 35197
28403 34570 32966
9389 2341 36376
722 23294 20580
2682 34657 -3368
27143 13830 16110
33569 24182 27822
18493 4765 20346
2827 12420 -1029
16184 35302 36945
37421 6695 -889
2308 30063 -609
8717 3282 -1373
31015 26920 -2092
34523 29633 13848
3997 16848 -3599
16183 23576 11239
24834 20357 26956
4573 8695 6920
12862 21236 -117
23229 13818 18567
6790 22589 -2721
5483 7183 -208
7745 14561 -876
1685 19175 25052
8758 4461 16465
6783 31263 20363
17703 18737 15962
460 2804 -2947
11020 5713 37444
19612 13859 14372
27094 31427 24918
30778 24548 -515
13015 5520 -1488
5789 8555 -1251
23641 35526 10299
36045 26541 -2210
22274 27187 27185
36716 26298 -1767
11254 18309 -2039
2449 11657 -1620
9078 12203 31803
33133 22243 -1238
30979 19193 2684
32170 5302 10950
22678 18719 -107
23994 23516 17857
2043 32210 11856
28551 8275 6764
13001 8950 -466
16765 13520 2284
33903 37330 -3174
783 35611 31638
17677 9327 19014
7499 8214 24602
36977 360 34739
37324 9779 29052
6086 3083 6632
35553 35731 -3695
20607 32428 -847
8271 31267 -2191
34914 23777 -2638
23468 21542 7184
25298 15437 24719
1150 15118 32658
5577 26054 29158
25771 30829 -3086
33580 7542 11782
27836 21225 -2266
6393 33864 -3655
25603 5360 -2243
33754 9559 -749
837 35835 9276
18803 19284 -3411
20230 20463 -2242
609 22845 -2937
9747 4981 -2969
75 5596 -243
7336 8928 -1075
24054 28491 -2094
33164 24642 4868
24100 4760 -1332
31455 34861 18823
34626 30309 9916
25708 10795 5016
4715 29533 26606
10882 27851 12459
19487 31046 -89
14683 18694 26205
29118 17600 21545
29833 11128 -1366
4210 34127 8362
31114 25654 37196
36960 7392 -1111
18640 18487 26218
4073 34593 16682
92 17054 24250
4041 35057 -2162
8496 10891 28589
32593 24364 -2431
13486 5859 -277
12929 21470 23657
36351 1571 -1849
29077 14735 -2756
16994 7466 -1447
13837 18327 6637
3587 27827 16563
29999 33834 -3002
29022 30447 -2955
19079 23591 -1857
17769 248 21561
7230 34179 723
35676 5069 36847
8161 13188 36060
20725 16494 -1354
13849 11285 -3158
28822 8933 33900
33225 37251 18118
33063 23331 5514
11048 1224 26147
14485 35376 24662
14840 5212 -3036
36333 32739 -2159
15266 33845 -3725
19079 8775 28953
7096 32566 -477
27344 10389 -2751
22423 32727 37435
15544 3045 -2815
32428 4271 34616
22085 6772 18428
2223 1791 36158
954 19162 -2861
3717 9689 -2281
23407 14752 -3626
24713 14384 -491
1863 4554 -2101
25932 18740 -1723
19932 7150 -2247
17934 21159 17959
21738 2103 2244
22556 28242 5249
21847 149 35307
32348 23241 -2280
34643 16203 -2617
23341 6958 31167
2243 34586 -1022
32944 24202 -3285
35160 10065 16719
9859 19806 -1937
10756 27798 2760
3879 7445 14132
33684 34956 3786
36793 5070 24688
11127 5818 -2485
21245 28375 -2313
12983 6659 -1337
5261 5217 -2003
33741 177 -704
12853 2113 37425
7251 7400 33533
37357 21800 12013
18803 15680 30245
21485 28647 24950
12666 7901 15486
31761 10311 16473
16692 7728 -198
512 3447 26386
20063 35195 -2089
28971 26960 36462
30691 13451 -809
33024 19300 12250
15703 2576 -2624
855 19016 22975
24344 2348 2962
12503 34473 -1541
30888 7123 -2785
26848 30403 -2544
33593 9657 16574
30947 30851 15688
34094 26818 -2715
31023 22756 17300
23240 35763 26555
14347 22404 -247
23124 28081 1913
20992 34455 14651
33551 2158 14041
27749 32855 5215
21714 37035 -1094
29690 27518 -3197
4924 19844 -2263
8034 33878 -893
34910 11224 8395
7202 36704 -1166
18880 22742 -2223
35099 3183 -1532
24291 11300 23523
28194 18067 -2461
18044 443 15706
6015 5168 28071
28690 23244 -526
5609 36506 -2706
23245 3376 -3384
34167 31853 28231
25304 12754 29813
22733 35874 20563
32441 17338 -54
5156 19371 -3490
1176 36266 -1948
23307 19548 -3626
12476 16842 5596
23911 1247 5915
34991 5122 -976
4311 30055 -831
22961 20355 -1937
21191 17240 776
9016 35786 16556
28142 22333 -379
7162 34325 -209
28547 16783 34454
21615 20428 2682
24886 24812 9318
2523 1358 26839
25407 6535 34430
13066 1304 -1941
7103 6074 -2774
5657 19996 -2864
7656 25046 -139
16986 29848 -2690
5318 35779 12492
7889 17598 18109
7046 6455 -3336
24369 35779 19716
33297 30808 1161
35141 23609 -1079
22206 34067 14075
3952 14329 -441
8353 6993 12363
36089 14573 -3048
11507 24836 33294
20958 7906 13925
14003 6436 -1022
10211 27968 11116
7073 18563 -2728
14594 10009 5609
4568 36712 35775
2848 23684 25060
20132 6029 -35
2737 36595 3089
34663 30119 4961
8670 3162 -160
26757 24003 -1579
25087 20500 1752
30891 32917 30520
9591 21747 19522
18437 14760 -246
24529 25601 9409
29778 5198 -3263
8750 22504 -3366
30723 20066 28320
23809 34718 -847
23502 34694 33315
22080 21663 10351
976 26149 15351
18704 19273 -1632
31097 32992 -238
10228 25978 37265
17423 21602 -1091
28751 27659 -2840
21980 8267 -119
35592 5801 28744
14095 7350 594
13763 36535 -661
23656 6991 22285
30356 18099 33236
21826 28358 -456
3119 10856 18984
17961 1211 -920
26139 16897 -2213
23846 8644 19781
21866 6388 -59
11238 3061 -2465
36917 27256 -1047
34654 33527 -953
4275 28582 36793
7288 28490 -1845
26897 29095 21381
21761 2927 -2759
26678 5394 -1490
26645 13768 -165
27140 37340 19917
12634 23876 6509
7416 4295 -2140
5859 36116 -2003
13502 16997 -2813
32139 24108 25562
24893 13761 19697
4037 19263 5908
26251 18140 10979
9001 20882 -2630
7873 17434 -1748
2155 3489 24841
35191 32909 29087
24339 29840 5042
30068 1961 -2817
32879 13832 4321
12646 36592 17160
14570 11979 6619
6075 25141 12689
15988 25116 -3647
13353 28402 -1116
4619 2674 -3363
3030 30298 17819
29440 10267 -665
15398 21835 -638
3009 37301 -1563
35169 14361 -975
11559 26734 5606
25381 6496 -1268
25341 33732 -1942
27005 14010 4345
1327 32516 -3644
8727 31872 29936
14933 37022 30860
3947 3660 32042
29009 17311 -672
15074 17197 22338
8284 13146 -2205
33998 6346 9558
35789 20882 4612
7080 23027 24547
14256 11284 25390
11939 8699 -2168
25119 11074 -1467
35927 602 18892
29999 25179 20393
23174 8762 -1900
286 24685 36321
20941 23667 -23
4196 16336 33132
11516 35897 -2044
17678 1551 2233
25006 32966 -3025
7336 32711 -516
28210 11152 17800
1866 8304 28867
13680 20293 9375
23135 30666 24168
35019 33202 -1449
20218 12919 27705
25083 36097 28659
34198 11411 -344
28134 24682 -1904
26384 21921 -3424
26483 21859 -834
11417 19858 16100
22225 18949 -3290
37207 35118 -1501
26644 24031 36294
4403 34028 34201
35249 5818 8034
30665 12108 -1181
16821 9541 32186
570 15344 30073
10135 22494 22036
17536 2362 -1366
34221 31159 34270
1130 24962 12478
36463 17243 25037
8900 5058 -2943
2709 19842 -3
14032 9569 -1094
30889 30905 13008
15954 10163 33696
11838 23260 26243
29214 33256 26605
26095 21227 16187
3720 36243 -3522
1966 15071 -969
25331 23596 -1983
20884 34369 -1897
1277 24741 3771
34908 11544 -1436
20199 17049 -1974
28655 10235 -1672
10372 10221 7412
31522 36344 22572
22017 24975 -3053
6583 20853 20001
2232 25936 -835
20610 25461 -3149
4228 16472 36294
13354 19199 29787
10905 34194 -3671
14929 30970 -170
3066 1328 13835
33677 14486 12869
32892 35670 27676
31083 11301 -1054
29389 24602 28740
9618 13921 -2054
23646 10493 -593
16851 28682 -2638
5541 8869 -2285
17650 10328 17072
22824 20065 16562
1092 1061 4201
1680 27872 -1849
26526 35059 7734
11768 4994 -1221
10227 27911 -1689
33853 27233 21890
20490 25174 17959
3744 17894 -1495
8775 11186 15209
24630 26610 -1013
34325 23236 1669
114 25628 33938
14883 32640 -2132
19956 33040 3238
3605 11412 -2609
31375 14227 -1957
19992 7764 -2942
3397 33070 19806
34457 25980 -3631
31581 21912 -594
29328 37439 -3359
28307 16813 -274
12211 11228 28974
34180 33504 22594
9534 24752 -1318
37229 29791 -2114
35787 28713 3736
23063 23951 -249
24400 9612 25289
28839 29380 21274
26402 36155 28650
87 1348 36954
4374 35879 18494
27440 22683 27126
7478 28288 -3667
21066 13601 3291
28537 34159 -2734
4829 2097 -1580
8379 23222 29572
22385 1555 -1918
2217 23139 -2505
3615 25716 -8
76 24821 -2076
22398 12506 -639
37407 7637 35049
30794 16559 1797
23211 18184 -3723
12933 30963 33246
7431 18334 -1908
7650 32018 -3512
4291 28080 6937
8231 35191 4985
19459 17112 -332
24480 8747 8556
16390 6695 3361
19646 19716 23170
12424 17361 24345
32706 18313 29746
34034 590 23085
32205 37226 -1113
36753 16203 20891
21582 15226 -1580
9760 893 -2838
12678 20966 -2592
22590 31199 30177
20078 5237 -2289
13039 32681 -327
34354 24386 -2394
6428 23793 8816
230 37064 -284
4051 16798 7081
596 22733 27010
15725 12470 -2277
5091 1859 -209
5225 1929 -2003
34480 27984 23448
15670 7575 -3385
18076 25073 -2135
30928 12420 36268
25009 12694 -2981
36170 18639 29409
26242 9185 -552
26850 7164 31087
21930 8356 8317
20910 4376 9847
14083 8529 -1168
5741 26952 -3745
22814 14811 25269
7768 17095 17279
5332 31452 16993
35903 13569 -514
19734 12986 3791
31030 24523 -1503
12877 35780 -488
25362 8541 11282
28823 17164 23922
23380 18598 24976
4521 12782 -3226
7752 12414 9215
8246 10165 -547
26195 18664 -2942
33004 7394 -1084
32028 12820 -536
140 8225 28623
32610 19790 31976
8834 24048 7448
8022 20397 18619
1080 18684 34548
3389 1715 -2242
9956 15831 -993
29551 21039 26907
26165 32839 -1957
27917 30147 35226
36468 20372 -3577
21948 30559 35025
21973 8907 16617
12932 34045 -2311
15012 6866 -1489
1302 31348 17249
21311 33144 -3006
26533 14617 -1734
10619 28138 -2289
27050 29835 -584
25917 31700 24966
26115 16765 -2080
32033 32479 -1207
32212 6841 -1376
8727 8949 -3541
22735 18072 10753
22078 32319 -3061
15562 2586 -2283
26625 266 -1067
7731 15252 17174
18025 12162 15625
25571 12248 14761
33453 24594 33313
12194 12969 25790
24984 11205 -2854
20764 36419 14025
26544 1043 -775
14328 19102 -2650
24195 23589 24185
11773 9828 34545
1442 31586 -2662
24410 3273 -3295
27591 31741 -3704
36392 21521 -2495
30281 21423 -1185
9073 2569 -1680
37348 21086 -1278
14906 5590 30095
10613 33800 11489
28575 13099 2841
8419 1245 -2285
328 5542 2250
15843 11977 16956
18968 15941 16746
4553 28325 5881
9329 22593 12450
16187 22317 -326
27571 30165 6294
21036 29732 -1153
13956 27681 15504
23817 34659 -1960
4661 10627 947
33397 33267 -751
27435 24043 12305
31520 15119 25366
30833 24572 -2339
13168 13080 -1606
13519 19910 -1360
17303 28506 -1196
18015 18198 -1456
14739 31103 1711
7750 31472 -1462
34113 13635 26619
9301 34564 25614
27337 12526 -2402
30618 34151 25723
15274 10473 25947
25319 14458 546
31731 13931 -3200
18168 27373 -60
8865 14981 -1235
6887 22233 -2300
398 20192 29828
32034 16552 -870
25785 33644 -2702
27144 13627 -1737
109 783 -703
29945 21517 -2311
19348 33110 18724
27729 14112 19779
10867 198 34652
5695 27253 334
22100 6749 -128
28586 2115 5278
9016 27942 35304
23919 20294 -729
20791 34248 -1001
30986 35168 -2902
13599 24005 2354
32408 4356 -233
9319 17251 24310
10205 17195 740
37052 11427 -2428
35030 15419 3283
12673 15765 2322
6660 12313 -2321
9155 5991 14768
7602 6746 -806
22391 22911 -3654
23323 22422 7888
23850 15544 36448
30298 17967 27687
18335 34349 37055
13969 7533 3964
22150 8289 -2319
3294 24591 21134
25563 15167 14922
9807 33473 -2135
14088 20428 7852
23927 5527 17877
20772 10790 29651
17558 15655 34057
21153 24087 -1219
17660 5729 6084
24070 19617 5719
30082 27069 816
6645 22711 -1836
1823 19788 -2391
25122 13785 -2558
32969 9767 3900
15708 36148 15298
28671 3288 26485
16220 30990 -3154
6348 13365 -916
15263 31497 -1321
20838 20769 -3017
22973 5168 -3440
27736 19997 552
31574 33475 20995
29555 3583 -3521
21580 3573 7078
370 11995 -487
12756 22422 -3308
10240 34179 20320
31022 11606 -3282
34381 21006 -3421
23252 32327 -3285
26769 16134 14178
23721 6971 -851
676 1198 -3394
18297 14198 -934
36137 27100 -1315
25809 37140 -3550
36275 25713 25432
24439 4260 36601
1196 36915 28703
24100 21600 13669
31335 21128 -2957
23062 27769 22369
10839 14532 28324
17472 35853 27811
18751 17211 -2085
25737 4489 -1211
33155 13516 9997
20966 1140 -2003
12486 11345 -1126
22535 11172 23674
20795 13993 8464
5584 32053 -1379
23163 4880 5466
10738 2435 24837
18080 10299 -1376
34640 1191 19261
10057 30747 -1365
13781 22749 19828
8688 27524 34454
35330 18322 10089
30489 18109 -1133
35549 17372 -181
28763 2656 -1229
16793 7482 30186
1303 13692 12282
37073 596 4509
4614 12232 8535
35273 3213 -3237
26775 32135 -1590
31539 40 -2181
12253 15050 6189
23694 14236 -1929
18883 6626 -3338
32558 2470 -2855
4677 25547 27501
10938 21957 17437
28931 30569 3667
22287 28013 36751
4227 2026 20386
33703 11731 3480
11719 6825 -1394
21350 29859 -3400
30875 4200 -182
31354 13987 27169
27366 22402 28348
37144 34246 -3388
32408 23628 -2141
13882 33443 -2389
17516 9461 -3486
6495 25461 34755
23519 36140 6681
12089 23031 28206
34950 30124 20430
37382 4714 25105
31049 11543 8170
22394 22815 28996
18575 30090 -3655
10176 17081 -1748
28995 28735 6306
1147 453 -2404
3419 2922 -804
2818 3908 -1581
25084 23621 -367
17382 14615 35332
4269 26897 -1446
14659 21818 -3328
9792 12510 -1248
8709 28585 -588
35401 21840 -2064
9348 6011 20022
693 12718 32901
4817 2552 -1780
18780 36478 22680
18178 22369 -1073
18060 34978 228
8085 37112 24150
14273 33473 15779
4292 6601 23115
927 6816 29821
8553 10986 -3292
2122 10478 -3531
25512 32991 16656
12360 34771 -1446
13013 26963 -2485
26698 6941 8667
4569 34573 -3483
23839 25924 -933
15487 20041 -846
16388 14768 -3058
23414 21027 -3
2436 826 -2403
4596 30456 24695
21462 26900 35256
33599 8600 15052
30965 187 -3560
35440 10909 33046
5413 3391 -3383
9870 4566 -1724
2401 10594 35578
17297 394 -2250
5143 5074 36926
9424 17067 8975
29852 4997 35964
16793 22174 23829
1426 32453 35091
4464 30486 16084
34815 17950 34789
19629 12363 -699
25261 20837 -1104
33624 9708 -1974
28583 7071 14617
20538 22481 25675
33662 27117 16988
16068 36018 32096
17544 21963 -784
10438 34969 -2700
27668 4206 21323
13944 36187 -2274
19001 20575 -1749
21386 10115 -1702
13056 9654 23752
4900 10448 -2540
1384 14943 32364
15649 7633 -3040
9033 16534 33485
21408 8406 -598
9300 10306 -2783
29855 3438 -204
32569 4368 -2579
9339 14897 32744
10923 22754 3998
22382 30729 18972
3805 30720 -251
4881 15228 31507
33661 9644 -2888
26496 27964 -3529
14639 3423 3581
16297 16799 11911
4876 23884 23624
12844 33266 18778
22094 7256 16335
26050 16093 8356
13314 15264 -1528
4642 5037 4427
5739 33142 12210
14856 36977 20806
7490 27583 26325
17767 27387 -1772
15974 34216 26977
14206 26104 -1862
20744 3202 -3061
22142 17277 -1074
32581 27158 16984
13646 32509 4745
12995 16353 26829
28736 27706 24105
10243 29989 -1667
18563 20882 -190
12042 5416 -1907
12243 27189 7435
20246 29817 11545
20834 19437 -3608
27385 7208 -3649
31257 18048 24229
13720 14903 -2651
32023 28262 -1117
30141 12507 -604
25998 19788 36700
18924 9522 -721
21312 23003 23708
25756 5065 -3429
19037 29755 -662
20456 16053 -3490
5688 13996 8149
35974 32309 -927
1885 29375 21345
36597 4813 -2758
21255 32994 11129
573 24536 -3674
34922 14502 -365
12553 17224 -293
19701 5971 10040
37290 35920 36502
31781 19953 11518
785 36156 -3181
26424 19187 2217
15316 31293 1850
30480 1086 -2077
21845 18853 -2108
14783 16524 32826
31330 13325 -530
9994 17569 -3023
1024 9975 -3740
14714 19391 35754
30224 26985 30893
26920 12602 -3455
20689 9471 22787
24053 14013 -1467
15678 13389 -1337
31619 13377 -2784
20809 3736 21709
27866 6458 7916
28782 19241 2003
24342 14325 -3596
31745 5407 12520
5794 609 -459
35697 10012 -1886
18437 25873 13674
9933 18431 30461
19968 12128 -664
23707 26000 -1044
7314 37335 36471
813 2212 -2771
27632 26479 -2963
9447 13575 4801
23244 33047 24853
789 30118 -2311
5135 28937 19526
13124 33550 -2652
1402 9703 -3059
29543 30659 -512
25370 18583 4698
28894 6591 18427
10035 17180 21299
35856 34556 -1347
2730 2930 31824
22848 37413 -1889
33286 22147 5396
15355 27863 1394
20550 3969 28850
33019 17694 19412
15805 23134 12886
16912 36044 28711
11305 22181 -797
7171 30917 8116
33262 33067 375
30117 10453 -1138
36318 9208 30369
22908 2074 -2820
33415 2664 -588
27622 4462 -244
21970 35963 24963
7407 6728 -3747
34739 13602 14596
24902 22168 -1625
7087 19470 -3375
1610 34381 -1759
21277 3941 15053
31514 26449 -2695
20810 26958 -209
31576 10339 25770
11414 22647 -1365
36374 20250 4826
10262 14196 21737
19731 31127 35733
29429 16160 -3434
37460 9623 29266
30241 18570 12748
11213 9573 -1104
14875 16369 -334
10587 13379 36731
9281 33570 -832
8376 10707 -2498
22400 36436 29976
6534 28840 -413
23669 8761 8858
9944 34818 -2508
35760 15222 7126
11209 17509 3462
6033 35992 -1332
30989 2867 -1870
21723 36263 28336
15379 28376 7102
31063 5680 26115
31801 10104 -2260
9023 4639 -3053
20532 2770 36401
27131 21849 -2638
9297 30038 15186
27949 16103 -1107
5082 23066 -1789
9412 22465 22404
24327 20770 -2557
10222 31930 -391
14683 12974 -355
4464 32931 -3739
13765 22001 -575
21557 484 6473
16941 7356 36724
28767 18005 1685
31170 1890 -136
3035 9819 -594
16223 7413 17231
6854 27935 16095
30371 2156 19300
7178 5259 8830
15117 9060 -3136
2179 10734 -842
33392 22650 5231
11885 9202 6416
1027 24591 36281
9279 26731 2720
5635 29688 -1126
2158 29264 35131
15077 10281 -3031
5603 12688 -379
33850 32284 28297
14439 9668 -296
5394 25694 6574
12778 28132 13521
24295 10804 27066
33792 16251 32985
28248 8196 -554
9432 36616 -399
10606 20759 15198
29349 24968 -1295
33978 134 20253
31452 13178 -33
11726 7720 -1599
10601 23956 5698
11712 29475 18139
5330 19664 30260
5176 12547 -1848
22464 29810 18453
30696 8271 -3528
5819 29199 15454
10717 26188 -2865
37150 13399 -3075
21360 19142 3910
17874 19757 5056
3581 26306 17490
28980 16270 -265
35105 16512 6401
2264 11861 -928
29648 5056 -3578
605 17722 8079
11024 35860 -2343
9583 9261 -309
11583 31928 -845
9011 1215 -446
31429 18731 -3451
25890 21588 9913
28420 19016 -920
27928 28527 10802
19187 29540 -2326
21931 24244 -2609
3966 34102 23337
15853 17693 32574
10271 12045 -790
37127 18420 -3126
11585 13866 16351
1485 7774 -1316
24401 19465 -2280
4933 11178 -506
3674 33110 -803
25738 7357 16068
12906 28516 11335
20724 35450 15387
7221 23013 -1653
536 12817 6636
32406 21054 -1741
13244 24320 15433
4752 18418 -845
1215 7393 1921
7726 21102 25572
26436 29217 -3210
8682 27131 -3448
29183 27389 -3719
29849 21094 12076
12437 37312 10332
15220 5723 -2233
22568 31968 26998
2928 11240 -2115
15533 22790 -2907
18729 31537 -2913
17051 21295 -3247
32991 19295 -612
15320 29896 4959
9917 31264 18222
19768 25496 -499
20863 9172 -2993
15380 15679 -3291
19745 37152 13152
9691 33461 21812
23479 29698 29656
20510 4273 -845
25506 25829 -346
2894 37065 -3303
26512 27963 -3430
10788 33955 23311
19906 27578 19900
25878 10302 -2172
1046 21142 26577
10281 24476 25536
25673 15084 -1985
34150 16696 -421
9301 8714 -3213
18555 32756 24008
10068 5227 21155
11513 17746 29922
14205 12797 -3210
16036 15906 -3084
34243 12112 -2695
28218 24924 36019
1572 23283 19518
16038 17756 -582
23715 30667 1186
8722 21424 20175
150 8001 -968
17341 2249 -1275
36718 36145 -1686
35777 35671 22555
4320 37140 2322
4936 25047 -3476
32102 21771 14678
7599 12930 -1950
937 24989 3171
6583 25108 29337
10790 7810 22365
14393 18924 4466
5241 30127 26993
15475 35978 -467
37370 3079 24851
23028 36662 -973
3208 4187 -805
22933 9656 576
32809 12317 -142
31559 34573 13708
8002 9077 -273
37190 33898 33427
33711 152 -3073
32697 3171 -1582
14743 21761 -746
4688 30493 12477
28529 493 -2896
12577 821 14807
32634 8443 23510
24341 31345 28002
10183 20264 6701
9465 7525 36935
5024 27446 9355
453 23698 -2195
457 5565 -2539
6459 5186 30593
7418 13464 -1778
34491 10780 -132
6185 33729 -1258
24863 5765 -1093
5292 8689 32336
10678 3657 7122
14684 9763 11371
8125 9293 32619
7171 5428 -951
27259 24673 -1390
8643 7808 -2101
13638 33011 -1528
2224 11419 25601
31393 28803 -2063
10767 13068 -1723
16077 176 -3597
22583 35030 -2103
31849 8850 -715
15075 6433 -1663
32231 1303 641
11040 32242 29420
31202 34228 7036
32192 12346 24342
17066 15235 23630
9945 16603 27967
34406 17386 -3453
13841 21960 -849
11322 21292 19705
11679 16039 29003
27884 18507 -704
12672 10846 35986
19725 34420 -2622
16337 22097 34071
16427 2317 -1769
28472 32305 -322
31172 4832 26358
156 15477 -2496
9962 32322 -1137
12769 26144 8736
28592 25551 -3231
34852 12906 -1373
29709 1878 31763
20933 12840 23167
34336 5004 28977
37178 28328 22378
30164 36677 -2645
29868 33326 33853
23755 29763 85
26782 23061 -461
2931 25872 -2372
19567 5395 29123
1617 25412 -2287
31282 31960 -2164
32927 21509 -1883
24540 37330 15427
32760 9102 -2419
25770 27583 24340
19764 30038 4253
37312 36326 11005
3416 3910 3718
23209 27344 28138
9478 34991 -1860
21810 23050 29826
16607 21056 28239
10768 27844 -3287
29065 26561 -3219
14013 18842 -3114
18429 17130 32889
11882 33887 -1366
5674 19217 -876
31254 16916 -13
28436 33306 28123
31519 3005 7951
30790 3516 20658
9358 7449 -813
10122 2740 7848
1231 27507 -2227
9891 7418 35842
34366 32521 -1768
1647 35644 28034
5941 19849 1466
36045 19441 0
23885 1970 -2862
16935 5732 -2193
920 686 6834
7907 17303 -1072
8301 33257 4911
12161 15227 9784
25794 16036 21362
30588 28765 -1815
15670 22110 18276
8245 3734 -1416
30276 18870 -940
11071 2536 -1079
30989 6673 3417
17404 10953 -3455
9136 37257 25897
35709 15918 -486
3483 29828 -1993
11009 13663 27422
37491 20313 22002
13736 24645 7982
3630 20950 24578
28473 9799 30900
30556 26126 -3352
20703 9020 -1434
12036 11585 -1188
22386 22376 3659
24391 28761 16129
22285 35759 -129
24527 985 -1330
7504 17436 15255
30006 21339 2824
4875 31577 5513
17892 10432 8590
15376 24751 -21
35574 35855 23054
1438 600 31797
15400 25538 18754
29081 26078 27978
3816 36726 -3088
18296 13656 -322
34273 4751 32826
3798 7221 -3260
17672 24497 30718
6161 524 -2617
35304 30750 17337
934 21168 18790
21979 31033 -1235
35694 3069 -1226
7827 34760 -3276
3860 12106 20959
23405 20442 5642
15447 7431 -1583
27580 15371 31978
15773 33314 13844
26665 26835 15549
4578 18938 16101
13106 21678 -1574
33791 35640 10497
35893 16149 19293
12895 14321 -3185
8996 20428 -1237
8935 35563 31890
9534 24222 1132
27641 11266 2902
13333 3047 28930
21516 8528 -3201
34182 27289 -3723
19327 16255 -3603
5045 24053 3800
6346 29597 18628
19910 14179 19861
10510 30418 16671
4805 4124 7577
90 2307 1586
8191 14164 -2964
17999 2836 -1896
26415 32496 -53
7451 33958 -1805
37290 11039 20798
11119 32500 -230
35505 34441 14362
14895 25019 -1633
8986 29637 -2545
34981 36655 35888
12529 18990 -1787
29047 19647 1530
31213 1841 -1444
15473 7395 -3154
25706 21022 7736
13908 10169 -1305
24105 18410 -953
10075 33700 -1390
27256 23148 -848
23865 30369 1437
18762 2738 -2087
9476 33615 21078
21229 32695 -976
6406 4882 -1786
30546 33215 -306
22658 8656 1220
7893 16184 26625
12886 34790 -2742
24600 7146 21838
12658 28856 -513
15207 15907 -857
24647 32815 25288
33473 5151 -2522
19538 24376 19644
20079 30390 222
10259 22461 -2994
22973 3241 -2575
35736 23389 25118
37002 1643 -77
22814 536 -1346
17696 30490 -2313
32663 24881 17020
20676 27542 -1959
26554 28212 19604
13036 11404 5196
32392 23494 -3364
14310 16447 -3234
23300 2864 -2245
30287 14413 32484
25401 35191 770
26422 280 20131
1777 14895 -2081
21905 15814 3117
21346 21637 11311
6517 820 -3052
1336 36197 25082
16747 20840 4810
28521 32495 -3300
2364 11210 -967
33627 36181 20283
34512 29949 -2046
32131 30531 -157
23282 20072 33556
384 24970 27516
24858 7359 -3457
17922 14896 -3272
28526 26035 33767
34820 7776 13105
27520 29961 36332
27822 8824 11039
11574 1688 37219
15678 21571 -1533
15462 26035 -263
30974 9390 31901
19695 11177 -2987
15709 22832 -1140
9161 24100 4600
11502 29176 -2706
23762 2055 20148
15880 7889 -3550
31820 26486 -966
26451 29424 567
29162 12446 -779
11744 28443 27281
25391 29515 -3114
9941 36592 6480
18818 17983 4646
30245 36590 7520
35262 26762 -2338
18907 17158 25161
25808 22679 -2709
20794 19714 -714
628 6386 -3624
10346 724 -1432
24201 16860 29976
29845 16552 -246
29148 20815 33486
23531 15790 -796
28957 23124 2663
5350 37345 17397
17603 926 15297
3712 30506 3388
21494 24143 3203
3556 8645 33448
2121 16275 3006
26744 32967 7418
6913 9454 -1146
21629 301 20214
25710 37044 -3052
6794 15055 -1804
25447 11083 -3198
23057 37132 31789
6332 32782 9458
30195 30049 -719
35235 21944 29162
17811 4671 1743
23804 24470 22607
21626 7860 17678
16477 37055 2621
29857 16392 -2187
27833 22863 -1163
9813 20278 33433
404 36752 -3524
23650 24055 -1308
16535 33902 16484
32113 4519 34291
12315 22238 20126
37197 11432 -3040
30555 16828 17181
14264 29668 -3384
28925 247 -12
22738 17790 15180
28698 16521 7859
30381 28504 21185
13564 8201 -3429
620 17789 -3148
3957 15453 32009
34148 31814 -2234
8320 12399 -3235
33483 35076 31317
7385 35545 -3505
5338 33858 25204
5804 32193 -3041
12187 12184 -2211
22386 11746 7441
27107 14665 37402
16729 608 22978
6311 23719 -583
33355 5528 -3415
27533 34897 34848
14040 15034 32719
20653 8407 17448
29545 21699 23104
21188 157 12902
16234 13571 20384
31837 31133 -3132
29803 19448 -2403
2837 14517 -442
7185 14399 -2635
29369 22804 -489
28787 25118 19189
6375 27569 18948
16234 23033 -1158
11017 28905 21758
29874 9658 -3396
16297 26223 -1458
20275 2946 -1276
33017 31986 -2986
389 10281 -2329
3326 5603 -3422
36506 14413 -1354
5718 8647 -3300
19029 12094 -2065
4133 36592 -3230
26164 6743 37240
27979 9766 23172
22910 16748 -799
31315 29836 -1589
4869 9150 6761
18434 4264 -3447
26860 32284 7845
18811 6967 -1388
18274 1889 -478
33974 627 25307
25544 33622 547
34336 22423 -231
29550 23945 -1920
23449 36112 -3600
28176 36245 29359
10572 2723 2053
22664 27248 30358
25465 532 19789
28049 10775 11744
11750 27434 -3660
34921 14522 -519
2840 24877 13182
20011 22771 -3664
22688 14175 28163
16668 8504 -369
29536 16020 11425
5625 26555 -2465
21257 7593 -3060
24912 3223 -1771
13701 15079 1363
36812 18292 -2942
28387 22492 28933
11373 6286 -1800
22022 31275 -2098
13023 37269 -2643
36782 33279 -1582
2344 26548 -1079
10499 27035 11098
24413 24048 19310
34050 8904 -2202
30898 25884 -844
8092 4567 32449
1482 30276 -400
12794 4575 -1503
21516 3674 -2790
30950 3124 -3586
30085 5497 30637
31410 36421 -7
8693 29117 29077
116 17304 12752
20281 21000 -966
19675 1881 2416
29271 8266 -3355
4527 28089 30484
33527 722 13984
3097 22208 5141
18951 23372 -1242
15541 10423 25501
6773 36737 -2706
15178 21864 -2437
325 13392 36936
16184 18967 -1788
10938 33195 5769
26027 7693 -2962
18520 13653 101
9357 4995 -3112
2866 28643 27214
28041 9767 4089
9542 17832 -2992
12373 3946 -1950
23072 2430 12873
37263 26211 20675
7445 5292 -1181
6881 25748 -462
17208 28458 -1647
5596 17733 -36
3140 15296 26193
26077 21547 -3151
36697 16821 -6
4429 28116 32020
35580 2832 22347
35872 11448 13925
798 30905 -3494
11182 7158 -904
34155 5562 -2220
15938 25826 -61
36371 20403 7925
26829 35372 -2822
32054 2292 15848
12341 8312 -3705
3210 12287 34853
20021 19540 18555
31887 30097 11212
19706 6720 -768
11034 16441 -906
8049 8959 5645
36475 900 12382
13405 19612 14981
28747 16851 32314
25191 9095 36464
12709 35600 5494
11158 2811 -928
18505 29853 -1758
20019 3907 -731
18903 10579 29839
25834 21092 -905
5245 7242 -3541
9773 9703 28160
18272 30946 -2988
8370 30809 -742
22789 9207 4205
23456 14213 21810
27017 20155 -1996
27005 33456 34090
7186 1979 -1248
9492 18118 20448
27980 28366 5358
30848 36553 4510
29685 33907 37340
10929 28530 33582
15453 9803 -1592
12083 4565 -1313
10839 13336 9219
22201 9830 27647
18148 7865 -505
15520 35855 28838
9452 23531 29025
6369 37323 34550
22581 18841 -2474
19421 21605 30469
29911 2980 3427
28149 9143 15192
1978 29605 10017
32737 19303 -684
32408 14813 -2037
18739 1138 233
36124 23867 -3333
32938 27341 26967
19428 17368 -323
8836 12705 23338
21703 35774 13887
24972 18974 -3324
23099 2373 22621
12470 13556 31815
21789 21811 1399
13428 36498 2543
13569 29672 -338
10977 5473 -457
32344 17690 -1269
3013 12865 -360
27174 28562 -1693
4853 15535 5633
8813 32184 3739
13666 27271 16430
19666 19481 8418
12244 13579 -1364
15870 27693 28023
29120 313 24852
3631 5891 -2230
34697 19493 -2184
4582 23815 15107
29142 9010 -2939
29023 18427 -96
20012 35689 -841
19726 16562 -175
17447 24121 -2262
25336 3932 -1896
12218 25200 7997
12258 35317 33356
34088 22042 -3447
19063 3870 -2188
33639 2481 -1805
4567 5861 20066
21635 8631 -3393
28263 19131 18033
24407 35229 -1124
2008 28851 -3657
10434 16914 14442
12514 7373 -356
8854 26750 37036
7125 15556 -3688
33731 8194 27666
20838 1180 3241
23481 27333 31652
34795 12758 32073
17466 24634 18453
24165 5346 10857
25189 5085 35123
26977 35982 -3055
14874 13707 -3173
27385 27670 3660
24945 33288 14362
21498 18703 6232
13115 4408 16581
31927 35337 -3577
34377 16927 17953
22424 10974 -413
10064 23633 -2668
3501 1991 7602
17233 8190 4192
29861 20629 -2744
5325 26836 21529
21028 3411 12453
19870 29370 -2110
29482 33637 -2425
35913 5156 25811
16939 25286 7367
15572 8520 14882
27283 31390 -1055
30647 29310 -2317
30814 22781 34073
24816 9925 -3291
33642 28188 14477
32633 13706 21415
10445 5135 5794
36198 23775 3659
33923 2218 10820
33471 21211 4527
13600 11827 -2259
10004 16244 -1778
36483 28167 -2657
25872 20516 -3669
22014 8404 16261
6201 21526 -18
31403 23808 -2234
36648 29116 -1099
33964 36049 16254
2171 25606 -2358
23379 32287 5660
4026 23771 -3260
21770 14418 11701
27297 35728 9073
18706 10970 -2676
35975 11589 2224
19079 32473 -3552
13303 29180 9510
22777 32407 -1924
30088 6954 33625
15236 2608 -1354
16790 25946 -1513
14225 9335 -129
17405 29456 -3367
19686 13824 22563
27704 26548 -3388
13275 17378 -2269
31371 23830 -1771
32103 1630 11215
7064 26494 -285
6804 7318 -2971
34279 12951 -1784
20810 6839 -2673
2528 23619 4736
5797 30214 13921
14576 22002 -3223
30960 26478 19996
3153 35859 17276
33791 32998 25072
32901 12570 9736
26500 30489 -2309
27095 5999 36787
30134 18193 34081
25699 5718 -1756
21309 11420 8197
2340 34857 13455
20755 32254 36446
5553 35378 23308
31104 35990 13199
3922 18277 -2850
742 3970 10774
12439 6213 -182
2511 6733 27536
14019 26662 -3594
13367 2428 -2513
24838 22391 -2393
27443 14834 -118
5310 1612 3739
36460 4798 -17
16932 31385 17372
16036 31187 3428
16327 711 -2520
12279 8722 -2605
26746 29240 19202
13805 6600 16026
1003 7951 -79
1675 30562 -3074
31184 31595 14636
18635 20248 10375
30956 28897 18372
465 10267 18047
34448 18365 878
37465 31435 -1548
35605 27845 -2052
21464 23304 -1735
16724 9715 15223
12848 5542 11926
37334 4450 2822
21430 2765 20310
30269 22102 -3609
11184 2159 -3169
29471 15038 -1682
14238 36974 -23
9350 24276 -45
24705 8518 -1344
9408 21870 -3688
9888 18276 -195
32433 25257 -2871
22764 13310 -3225
7306 16531 -3007
23508 31347 10803
2216 21097 -502
2664 27011 -2489
28527 9530 -1238
29519 1605 32515
1991 14981 35277
31978 4615 -976
27552 2186 -195
12706 34650 -2426
29953 30257 6747
10150 19653 -796
24307 33837 -2137
3861 11820 20171
9856 32239 -226
10129 32950 -429
24904 8784 36560
10025 12420 -283
25218 10568 12809
10029 5764 30463
26033 16043 27572
25896 835 6290
12064 18721 -2567
36007 29925 -477
30232 12896 -1335
12606 23338 14195
16621 33804 32370
793 27604 -685
3480 24113 -2487
9142 30062 11629
29848 566 9193
11137 1675 -2379
8636 18282 16937
5163 11102 -2145
24851 1016 -3611
32196 15207 37130
13598 17430 16051
7992 10963 -3078
18064 28780 -1706
3988 6434 -862
33487 31962 25060
15665 8392 -3529
13188 15759 18851
7229 13663 1147
3770 24131 -1959
26320 4353 20890
7504 10955 -3125
26285 27181 -982
16138 18544 16833
8150 25373 -1951
27111 23478 16628
19211 35735 -1121
37310 26685 -406
24179 21437 -3111
9022 12528 -687
9609 9596 -121
35020 33395 -2125
18224 12631 -3388
23301 27162 -3588
17815 14215 19726
16641 30871 -480
2976 32241 -997
7447 19599 -3272
1215 36173 5085
19918 24878 37420
27113 3807 -2312
26660 34155 7652
8455 20842 8829
35197 7174 -3337
32855 32675 -1221
33421 6555 28489
26290 28502 3162
29252 23175 -3368
12737 18868 30817
30731 23451 -2055
22944 9926 11513
3298 28339 29453
35341 36553 -91
24493 11083 -15
20740 5582 5427
24556 18136 25918
17672 10381 32042
3368 23547 -547
37114 32218 -1377
19314 20733 27799
9498 14615 2757
9408 12555 24842
35563 31945 31660
23495 8688 -2290
18517 31818 -3108
26153 12694 -2373
5657 6072 -752
8699 8251 -3435
29108 15656 28308
10696 1757 -138
5870 22345 14417
24743 15570 12933
9047 15825 1151
6363 33481 31396
22750 19967 33124
35078 2700 -11
8379 23943 830
18742 23709 -2321
5314 4297 -2793
31527 23126 -84
13486 34796 -3662
11150 16044 -981
23938 34396 -985
32046 30083 14551
30621 25308 -3277
4499 27272 -2261
8001 24476 17616
29898 24737 15822
11126 15567 5186
32696 16110 3617
30432 22503 10447
5195 16558 -1425
21527 31768 -1517
15537 33103 36372
19529 21480 17297
18190 974 -2818
25777 18998 -3506
21400 24722 19539
30358 35545 -3655
31477 25434 13428
31782 18916 14239
25597 12583 -3527
16984 2494 23620
8690 10563 -3693
23142 17687 -28
17109 14554 -215
20879 13445 -571
33857 2057 26016
8507 16276 -1098
14732 31756 34639
10624 29358 -3090
22073 9003 27267
4165 100 -897
34097 23137 -2504
6929 20954 14504
32396 30709 26473
32609 27830 5683
15143 21327 -518
8734 36603 -1430
34757 18843 12990
15584 520 13142
21589 30497 34847
22418 6020 -3741
23815 31879 37147
14268 13769 24234
10123 14249 25876
34890 28036 -2119
33086 4746 19696
28697 22786 15520
639 20327 -3002
13858 4752 -1936
24596 36048 7659
6011 16993 24526
9093 33549 -1554
11308 14877 -2351
17091 16823 9357
16961 605 -2596
32426 35131 -2732
25942 35280 -2605
13310 29922 37336
29024 6362 10929
20774 35339 -753
32017 18 13092
10055 29933 12351
29323 18454 -163
27591 3139 -3662
33786 30640 27912
33198 33897 -1116
16946 31963 2319
7464 27524 -2484
18265 25751 30794
19759 25186 13434
14982 11135 -2791
32910 6772 -1120
4888 26600 12517
27366 24587 3295
3808 36685 18987
25765 46 -2524
4576 36727 -3586
20099 2077 13830
32446 10765 23168
24496 35239 2900
28352 10509 -2395
6570 31245 2101
504 4966 -3151
28032 26441 -848
25305 11086 -388
29320 6359 -745
12728 31864 -3369
35532 3038 -2347
16167 26656 13801
12392 15719 -2578
31086 17639 27058
29686 20212 11848
2262 5811 26718
26691 13351 27479
35642 3671 6802
7385 7794 35320
28488 13125 34265
2069 12116 3930
14634 10001 17410
5157 22385 -861
22874 34617 2196
27514 26953 -2688
4384 27547 14995
17962 35773 -3306
11993 25643 14364
18700 30891 -1447
12024 29550 -177
5459 10926 3207
3575 25412 -719
54 27550 -2197
29635 5048 -3135
31275 31333 30543
35063 11969 2003
29353 30962 -2652
28708 4610 25879
186 15876 -3146
34690 9798 -43
26523 13989 -3194
15010 26166 29286
20202 19444 7633
1669 25506 33183
26521 35924 24370
12064 20005 -1215
7153 8832 -2638
26537 9679 -2854
22068 24306 33626
1752 20518 -1544
19849 6327 25553
23296 33009 -141
31993 32734 -1030
9933 27949 30236
20776 32158 -3369
32844 3153 29578
10278 11876 3767
16462 30012 22622
6117 24489 -3560
29836 16595 36662
4661 5816 16534
20799 7564 -532
20777 20940 -933
8209 32810 36930
20952 13700 20518
36912 4711 5184
10528 32036 -2040
23034 27860 -748
7979 29492 -1393
32241 36292 -864
21751 29272 -1010
34781 10857 33081
31594 21468 13024
19612 36333 6587
29555 23266 -3558
12825 19432 -3121
9438 20740 -1635
11192 7282 14610
27028 760 -2040
6741 12506 -2483
17063 6435 -1720
11237 27134 9082
35932 1997 18048
13606 14077 -663
30144 7388 23367
6120 13936 -890
14291 9146 -1865
28700 33115 -1140
24165 19087 -3461
735 731 -417
9161 29844 5077
34464 8845 4293
3703 33084 33435
3213 3566 11713
26377 2111 -2122
11405 5653 34290
17555 27931 13706
35430 5021 7605
14055 3670 -3269
21033 23384 6994
10724 33282 14310
32479 1080 -926
36114 34149 -102
33266 12467 -83
474 3305 33439
4411 1398 -3078
1974 20631 36376
25044 9691 26257
732 12611 -2340
24638 32801 -287
15963 4181 -928
30403 33389 -1557
33574 24811 7170
24092 26290 2620
27017 1038 16586
14137 34170 -208
7426 27914 28034
7847 29085 14702
5143 9764 -2850
23099 17982 -3312
22820 37009 32195
37302 23261 -3493
7771 32658 33504
33587 5311 9454
9731 11548 26637
13679 14624 -420
36760 2061 26401
26125 15017 -2085
15692 28533 22360
10574 22946 -3370
20107 18403 860
29424 31417 -3559
37301 35836 -1260
23295 30254 -2076
6944 9338 -765
33995 27669 4897
1306 12806 35698
16616 13185 -2641
30938 13363 12705
26281 12697 -54
10509 26857 7520
28556 37327 -676
32371 13362 -198
14060 1888 -1267
11071 4207 29009
10280 1569 31055
15302 12029 -2263
21166 21483 12097
25146 8677 -1633
9897 35466 31116
26863 15358 26780
2089 33169 21528
28728 6255 16751
30862 7076 24601
17860 22894 -615
29711 24189 4200
1604 13859 -1254
26916 25977 -361
13617 29556 -2181
7872 17948 -1717
4753 32745 -3380
9418 27305 -1834
1403 27699 21909
33385 23811 -1305
31212 21805 25017
35096 3419 -1054
9330 25612 14734
7766 11794 -3556
21634 27580 3659
6500 24585 -1614
6967 31686 16761
29699 33938 32391
23765 37235 30500
12315 16354 -3508
18384 4807 14008
31118 34862 20869
16758 35608 -260
15162 16694 24205
24749 9557 -3416
18928 19975 26933
22061 20670 7047
23420 22672 27015
37385 14176 16673
29106 8497 5288
5090 31470 12465
13223 9824 -319
34991 23080 18256
12440 18137 -2040
35359 19855 -793
36222 15759 22413
25553 3693 32110
5179 2526 33610
7587 6869 -1391
13333 21409 -1776
13133 19539 1919
20274 21896 13211
89 13691 -277
30662 11069 19237
13877 12691 14728
15405 8439 -538
7460 34270 -2031
32425 34998 22598
33928 16696 35363
36662 13919 29350
27502 5926 1044
1082 21983 -1942
749 29647 -1569
1961 8009 -3499
5062 12086 2498
29203 13289 1013
3623 7642 -2508
36156 8367 7382
35372 17751 -2893
27194 111 -696
35278 35319 -1650
17064 25017 -2743
24736 14731 -505
22476 17323 -1047
37345 17269 18823
6771 29193 -2683
13719 25700 -2971
34700 9065 11171
3863 7087 -3585
30899 7685 34514
4983 7236 -113
15462 37391 15117
9393 2206 10962
21184 30535 26001
24507 21707 -2069
12096 6539 3205
31087 20169 18116
25285 19376 14896
17070 35047 18933
29726 2496 550
35550 26161 -1125
11382 14758 -2385
10861 22787 33494
19809 20310 6530
11705 35628 -1899
25431 8011 -708
32386 7648 11465
6921 6797 -66
25146 33528 12804
2249 30126 28027
33682 21773 265
34137 35432 28354
519 184 -1733
20583 24499 -679
10764 31041 4874
9310 15173 2697
271 18257 5928
35881 27618 -282
985 31250 -477
17352 13757 4488
34936 30666 -1162
19823 11432 -1192
28967 34113 -2251
28821 25435 -3416
33999 9136 -370
37043 612 12139
37025 26318 -2499
35167 28991 15143
22071 23023 22634
28725 17143 -959
3428 5655 16223
34736 36179 -3612
1976 16068 12748
17466 6383 -2723
19156 37224 28293
10499 4649 2681
19518 13754 37455
2412 14847 -3718
4313 5250 -928
5348 7379 33234
17084 33187 18849
26530 9857 5390
26501 35305 -817
34697 18931 -1175
35099 15428 -1962
3382 9711 35881
33465 10625 -475
36576 6169 -833
25593 30861 -1395
21283 29690 -1177
898 12423 -672
34170 8642 -580
24812 886 -3585
23743 19178 -2608
11521 6178 6374
26772 30488 -2110
9912 35678 -3365
14383 14076 -2117
743 20594 -1358
22169 9010 -810
28852 33333 8277
14334 35131 -1407
27064 6287 29254
21819 27337 -1906
27128 36268 -1008
6427 10736 3688
14380 35299 7483
36804 34307 34949
10778 28134 -2881
12854 26809 -2830
8486 28283 16456
28163 36365 -2848
23763 21347 1152
31225 7750 16483
37459 30065 -2352
33763 12910 -99
7125 30642 29220
29727 5920 -3318
32390 29724 -2619
19054 23257 -1638
866 28486 -422
13762 22593 29936
32063 24737 -271
8503 10109 -2282
22017 26210 -2558
21871 22698 -2699
22051 15912 13435
11158 10958 22515
3002 11209 -467
32013 23886 -1200
35429 15775 23503
18343 30693 1982
23751 37464 -1991
633 31564 27954
8194 2478 995
12006 3792 -917
22356 32906 -1287
19086 36820 4447
14498 4300 -1684
8357 3041 3916
35049 22338 1592
25986 30863 -3164
5978 21806 -85
28784 35159 -3104
18609 23745 -682
13717 5749 -1687
17527 26602 2410
2030 11980 13069
21036 29673 -1416
28658 11667 2374
33457 13222 4912
1880 22263 -837
26440 10184 -3000
16025 3193 -3647
8029 3271 3740
8732 30861 31751
1310 21256 11210
37324 1142 22811
13831 25905 -2938
20105 12637 -426
37361 4015 7721
29396 10727 26454
37302 23497 1688
28560 6437 34154
34899 28885 -3287
15905 14530 -1155
31134 15241 5824
9466 23291 5091
28647 611 2225
3353 7714 26491
7527 32512 17770
29827 23461 -2539
24551 28636 6420
5544 7038 18692
31718 1097 -3099
35813 36283 25354
32192 13096 14070
32266 34576 8198
25930 30097 9811
11219 6581 -2480
2361 13688 -1010
4031 1841 10528
26455 24674 27040
930 17627 -3506
16903 25032 8786
36338 9848 -2111
8327 24901 -3295
32837 95 18187
32587 20536 -2470
10194 31897 16905
2327 10695 15190
25005 27673 15387
275 4019 -641
7419 25283 11134
22741 14178 16747
21548 22322 -1737
22379 5862 -1848
9709 29100 35590
34307 18497 -2551
17753 31036 28968
23470 12001 -1847
12910 9297 30457
22053 30234 -1903
9597 21619 -2252
32490 19582 -3743
1696 12196 24976
26523 24143 -491
30607 27703 -2349
20901 11520 17237
5166 7706 -1967
37163 19623 7589
23875 32319 32471
24147 1205 10737
14483 5006 -1400
1470 20804 -2451
31189 15775 9376
29449 29060 23962
2642 32872 -3666
20503 34938 -2545
14516 34324 6419
26866 7118 -2414
31481 28128 -3491
2335 6359 -2971
4348 2749 -913
5868 16753 -346
6730 5880 3899
33702 20977 18056
4567 4839 31178
5082 5289 32892
26901 37184 -1248
10753 36340 4471
15767 28398 22220
19735 4819 21026
2036 27876 -2104
1482 23761 -394
14683 15708 9330
34189 13022 -2548
13937 2678 -1407
9034 6241 -599
5791 9290 -1692
7936 6888 36302
29562 13295 -92
18998 5106 -3518
20605 17925 26027
1116 30266 -2768
13548 16461 28109
19550 1437 -1836
14526 8319 -1426
20085 7995 -325
915 32469 5548
32201 7513 25225
24642 17571 31424
33384 14041 26600
11757 23572 20578
9647 34655 -2787
18334 23651 -2224
30090 23212 -1538
27846 25362 -1218
35906 33151 9190
29834 34635 24954
33981 33120 -3426
16030 21135 19132
7826 18759 -2576
26034 22415 28438
25864 23015 11014
30807 34983 -3613
20002 25839 -1627
26387 5324 -3485
29389 31852 6004
20966 4777 23539
12651 35994 -3530
9545 37368 12508
24176 27107 11532
37044 15505 -1902
2478 25559 -353
6310 35146 -1627
35484 8890 -2457
4559 4064 5085
20443 14151 11697
29820 20771 2951
958 28932 -2303
26841 26681 4087
13291 7919 3952
36155 37460 -1317
27316 12181 -80
1320 34619 -232
3185 25669 13443
33805 24991 -277
21311 1790 31402
2877 21144 -615
12430 16138 26695
30342 34312 -994
3201 14089 -1689
1873 26223 -1463
20598 6210 6495
1208 30178 9071
32232 32504 -1855
10649 841 -337
27167 14061 7439
1253 3243 -2851
29124 32912 -1637
20083 16659 3086
13475 34670 32964
480 21151 21391
24467 18162 -931
30430 3536 -783
20842 16132 -100
28332 18441 -482
26092 11859 32643
12305 22113 20996
2235 21320 19692
11127 24125 -1356
17260 13540 6605
33262 35872 -1413
33667 11038 -268
36279 29440 8317
23168 23727 32351
106 16593 -2243
24353 18941 29670
24168 3741 33797
24070 19231 -2615
10646 35723 37200
31716 19431 34366
19732 2971 -2648
7491 4171 -1318
2201 19794 8117
26666 22800 -3259
17506 12561 -3349
1758 8373 -2837
28978 25572 -1225
24979 20495 -3034
6295 14828 13507
9604 2433 -2076
29954 35529 -3231
30380 15271 11419
648 826 -609
17755 1515 5254
2372 12510 -1690
28157 31347 -438
11389 8522 -152
10656 5392 -1562
24556 26852 -3664
147 23232 -3619
20886 11949 -2752
19649 34217 14413
7634 34509 -2048
29673 13431 18255
27341 30603 5627
6259 13103 25154
31172 3673 20938
26826 10158 18634
27487 30376 -462
15716 34456 -127
25777 22681 24644
35304 27331 14906
22205 14071 17647
22488 30117 -1577
18048 3637 -2938
4408 33365 23643
899 19077 -2300
30770 22294 -161
14840 12692 -8
27489 35313 11234
8422 574 -3392
21651 30929 -1146
3624 11490 36728
30040 30589 32149
20309 13986 -45
13569 15050 14054
8613 14649 -1817
6389 24249 -3049
9906 5631 23428
33012 33249 26343
30531 25315 -3277
2091 7999 19924
17900 26994 20924
22580 25886 -756
17160 6184 -1667
31485 4562 -1097
901 26739 -1288
34033 29727 8233
14698 14040 592
37359 6328 20606
2318 4184 -540
13919 15194 -3674
28565 34017 -2882
34829 23361 4953
32578 15234 -574
35149 15819 4732
2067 27265 -2139
10806 1885 -3278
767 5470 -2761
25393 9053 22489
36377 31241 -3213
11029 28619 14316
30984 16192 21242
5632 3378 -3219
13607 21885 -1443
17487 7302 -738
29529 12911 -127
9496 22700 25892
13439 14072 -2935
35571 12532 5913
8386 1693 -1707
2108 7785 25255
20491 18057 1671
7611 8377 -686
15461 29851 -2646
12806 9735 16800
15505 5590 32213
21295 30101 -92
22261 13278 12265
35065 26703 17870
14254 4505 -771
12667 11259 -2943
32843 2402 -2378
4397 15972 14537
11064 5849 11449
9954 34421 5709
32137 16004 23552
12291 10340 -3180
28014 9466 36371
30529 15120 35740
23492 11732 7485
16968 13634 3041
1102 31259 21006
37297 29644 9195
14780 11371 25955
23376 10312 -2321
591 31635 -3076
18196 11567 3660
22033 28516 24974
23447 6815 29109
16169 1139 3468
29666 28077 -1052
26202 18962 30417
7739 32791 -17
33922 3743 5927
17747 3943 6902
23533 19709 -1526
23529 16223 -2308
1202 13415 31508
36672 10950 20339
11470 809 -1837
4333 10493 34817
33046 6962 -787
25678 25644 -3306
11874 34760 -318
34806 30711 -2103
5508 25375 -2868
518 3161 25411
3173 596 13719
7229 9733 -618
33848 10134 -2543
28837 26989 -2063
30416 37025 -1313
29095 35026 31748
7574 25645 3532
23277 34470 -737
28131 30543 36077
29383 30329 15307
18522 35216 16467
20509 8659 -1929
29732 28459 -1031
4924 22472 -2176
16117 1527 12512
25133 11846 416
36955 22188 31474
22751 6604 4354
34653 26054 -2990
23251 17517 1283
33833 16707 -2089
14585 17788 27781
22687 17472 -51
6096 6215 16889
21605 27970 5255
17812 1015 11432
17376 5467 6950
22847 29105 5082
17931 18528 31448
12930 31053 396
22842 26043 -1351
23480 1325 34954
32291 19944 31077
9699 21318 -3606
34570 35867 31703
19325 8993 -1376
3274 22284 -140
12135 20495 -440
14001 18445 28820
10096 6833 -2344
23671 9582 2759
21812 14473 27347
30863 15937 -984
11552 33906 -2857
13982 18037 -1467
18854 23645 -1933
23775 15818 -3657
13998 30249 18447
13174 34714 -2705
7034 37214 31477
17885 25334 -868
18429 4740 12602
22453 8152 -2391
25436 15967 -3201
33741 27875 -1540
16233 7613 31688
11762 30184 -670
21328 1420 24843
33438 25454 -3447
9921 4350 5316
1329 8978 18201
8434 3791 29335
35732 29983 -894
27363 28139 4121
7243 22063 3752
18512 27 9957
3619 13113 36744
23985 9057 -3692
32923 15643 12106
32075 11053 -2614
20435 8423 -119
21457 6113 36129
2287 27734 2888
28540 19246 -452
7765 25361 -1128
10338 7766 -408
444 15084 -1213
30929 16931 5708
36844 1802 24275
35807 13539 13318
25519 6884 29919
21816 11435 -129
6224 24287 -3734
34406 37477 -2086
17149 12419 -2485
17114 9792 -3465
35475 15555 32956
32977 36047 -3739
33317 17532 -1931
9938 26022 -1658
29557 11067 24247
20507 36918 28412
6886 23217 19089
35230 26939 -3201
8184 6626 23060
8846 19208 -779
21854 27873 -2633
30088 23819 19457
30310 36721 -1335
26675 4520 14879
4222 21209 24355
4644 36765 -2259
23635 886 25356
18671 19895 28304
15703 3092 -939
31307 34186 2024
9579 13558 5643
1203 18146 -383
14096 10013 37086
30163 13072 24967
4450 7740 -2979
29010 14212 -2492
28586 8567 -731
20971 26371 -1891
26690 27667 15310
17483 26328 30083
8145 32205 -1132
24094 5028 -1407
24807 13765 -1718
35398 36005 -2219
20080 6080 -375
25906 3348 18791
24112 1610 33723
3589 28392 31828
8670 33915 18085
8595 28162 -120
268 34805 27402
13686 34267 9647
14113 8247 7641
23328 34837 18422
1560 4625 33632
29775 16303 28206
21904 10720 25506
13779 19479 28239
14493 27139 -2372
14500 18633 32298
9026 34235 37071
15953 10531 17787
8159 7931 30835
3441 23644 21800
785 22178 -2016
35557 1189 357
31218 30066 -804
27210 13310 -3056
9517 8901 12080
4421 7354 -2199
22608 33475 4516
20571 21452 10586
32611 35175 -3095
4125 223 -1500
3870 27973 21659
35050 25961 33880
16739 26444 -1664
26553 10769 -2033
26320 20470 29465
5930 25409 -381
29688 9550 12363
17238 21637 24963
35995 24729 27239
13712 22961 5523
8958 1670 17493
33955 4658 20777
1060 21198 4315
22414 33523 23876
3863 20120 21381
9983 7193 -1953
33399 22271 -2873
5926 36668 -2795
26658 33518 -3258
34099 34022 5714
34807 13006 540
28375 35039 -1034
28238 5675 13014
30689 33310 -2830
26764 9990 -1022
14491 20293 30438
19412 31541 -865
19096 76 17864
3991 12086 -308
30681 10677 11936
26065 25084 30618
28012 22098 22642
34054 13508 -1419
37338 8709 32959
14239 13710 -1427
3798 20297 -1851
37151 19898 -644
19298 4727 -2995
17840 24503 -2442
14059 19793 -2177
28791 13279 25113
5705 31470 -3237
29373 4339 3788
37048 1720 34878
13253 23481 25243
37168 17635 -229
5343 9033 -734
15080 22070 -2883
31957 28937 1483
25015 28557 -2149
5739 37193 10475
6818 7809 27279
5960 26456 34009
578 28885 30531
21872 18052 -974
7262 50 28885
7302 29341 -1772
25728 18021 8945
490 17770 8099
21677 18933 29302
30196 12708 3235
7983 36675 -2601
26081 15485 -1585
10107 18654 -2145
20025 1989 18143
8596 18425 -776
32632 10802 -35
35522 13096 12964
12656 15258 32502
25463 20933 -1644
23949 35121 -2227
16467 32014 20663
10603 57 2662
4980 7553 -1701
33948 33372 36836
5243 16550 -2138
4680 2826 14434
12765 25009 19679
32580 7425 -2741
3475 36902 35171
2581 18555 35615
33037 27162 8815
22398 33951 -565
23941 225 13101
622 31098 35969
6666 15878 -33
19525 36111 -863
22612 35144 14880
26107 23390 8723
6883 14981 7707
16511 35128 37453
30457 58 29468
16797 28242 -3664
25582 31948 -1941
25047 6811 10669
24374 27133 17430
36515 33196 -749
21196 36435 3931
1881 30889 11281
26706 20984 30165
34577 30349 32513
1564 25985 -730
27234 26007 30668
15583 29939 35009
15097 25078 -2644
3217 16985 23767
16159 17226 18075
28814 25823 -588
17388 32365 27380
4152 16021 -3641
22381 27472 -498
36221 36332 -319
37485 32762 -3381
13448 26484 -1300
30391 2832 33048
32007 17855 26595
7143 16437 -1148
4586 12428 -3306
24266 15915 -1657
26631 12190 16616
8805 23407 26884
11871 34499 -2670
34448 24729 30923
27476 10339 8196
14959 2263 21981
24965 28241 27906
11529 32096 -2614
13109 36662 -3558
31885 13808 33916
22719 19022 -2936
11115 17194 -697
8455 13479 -584
19245 8835 -2597
2908 30411 149
23459 12220 -2383
35458 3411 37359
1637 15173 -2567
8994 22622 12903
7612 7301 11279
35796 33599 -702
21121 5130 -1642
29941 33021 -1285
6694 23208 -3637
13302 33654 32268
15027 6037 -59
5700 7000 35577
27622 27149 10702
17885 16360 26005
20661 3328 22539
3218 29115 13098
29678 11389 8064
9317 2733 -567
20875 26424 -2995
27649 590 -2501
29676 3812 36844
22317 19438 -3153
23202 35789 -3570
35194 34907 -386
17328 30946 6537
451 26521 30126
16458 12606 -192
16437 8915 36999
16754 28244 -365
16302 18000 7142
22298 24707 -1009
4722 14182 4906
22539 26608 11428
28872 33814 14870
14661 33654 22102
33708 10853 2926
21326 33707 15572
26510 22941 29521
28817 28064 -3312
36748 23273 -2243
7832 35859 -1790
33920 18681 3341
10251 37464 -2575
5736 36900 -1788
398 10387 1891
10290 15205 -7
12794 26164 6833
31142 8946 -1949
10671 13161 -3269
5810 9523 31571
2436 11882 33723
8970 26972 35033
5358 19487 31865
13037 24497 -619
31914 8478 -3362
31946 14628 -3535
28205 4117 20506
2444 33189 33626
4241 32356 -2215
35888 26104 26041
27080 24341 -3636
18365 16007 21412
2616 34928 -1688
33502 4918 31634
6634 35888 -2568
24544 11839 -557
5029 10145 33414
20709 16267 20604
19913 7176 -1086
16804 995 31705
21791 5640 31270
29942 32376 26526
17553 2077 -2200
35692 26805 -2651
17933 32277 -3611
20234 21152 18077
29898 20898 -3556
4703 35006 -1115
35103 4730 -1729
15367 28762 31659
23608 2296 37180
11430 34874 -1922
36064 294 -294
1298 9452 -3224
14042 34952 21010
34438 9171 92
18354 8741 20139
17791 14378 -497
2859 25240 -2559
19428 8900 -1334
6858 35871 28548
22837 1704 18947
11448 35661 33747
31080 19907 -1248
23027 24584 -166
17759 34574 23748
27264 16398 -1576
37280 1429 -1776
18492 17994 -3169
9385 4661 -3079
20248 36166 -574
22793 20270 -2322
25388 29090 -3547
35522 1325 27106
17046 4072 -1332
9554 21244 -2753
31138 20341 -249
707 20509 -480
29833 25421 -1040
19661 7645 -716
12358 10477 -111
36151 30791 1618
30342 23626 22379
1804 13757 22903
30642 19341 37141
25222 28153 -2412
7476 26626 2665
6583 33402 10829
15066 2243 31845
30288 25421 8197
24111 30005 34486
33655 15878 17329
25278 8538 17191
32864 11897 29190
34524 1124 7281
8333 3447 27593
13583 11623 -1355
16215 15830 -960
11463 31547 6548
18008 30027 35961
17971 32723 6969
5290 33658 35102
16353 12310 -1049
25017 16818 -725
7280 26296 18662
1101 17633 5232
30200 28998 25846
21314 20928 29036
12667 19898 -3172
18100 26376 23853
29335 14109 -2081
8844 29366 -754
11697 32028 28273
9958 19153 21798
14222 10519 14159
30204 2963 16433
23136 9189 14354
9516 8318 21108
19453 6087 24111
31672 31045 -2356
28363 4329 17094
380 2713 -2075
28087 19122 -589
31325 11256 -3425
35282 31165 -1163
11047 15089 -2257
8006 28739 6319
19136 10752 28687
5632 34729 7875
6398 31360 -979
23607 18874 -679
12793 2523 -468
25030 12128 28199
16931 29155 -2171
28049 26835 -3506
11105 14627 16768
27969 29667 4307
26647 17757 19346
18341 20717 19043
37215 2789 22963
658 34668 24395
34134 32187 4
3447 22156 20166
22096 22606 23705
35997 29092 -1324
18614 28031 -3392
18157 10673 11174
577 10375 -1653
11181 37291 9030
30913 7785 -3553
35371 32301 14465
14935 36202 -2446
7931 8211 -661
19537 7297 2372
13972 193 34998
6126 20401 29825
20388 26450 -1037
30498 36212 -370
7122 33645 832
15217 16600 11362
20671 7498 -1158
18094 20383 -205
22555 37322 17815
769 31393 -804
31418 6381 37486
24011 29993 -887
16463 15124 -3442
2791 34862 -1209
13662 15501 15610
27589 33348 -2274
11971 13800 14167
32038 22968 9028
15575 24879 16768
15052 20580 366
4238 24502 36983
1632 19485 29672
1074 15544 -1634
22148 34395 13790
2072 27900 -2730
32548 29403 19150
21502 19850 -1889
411 8835 -1677
2069 36478 14869
27268 26588 18939
36721 31893 33853
9109 9182 -913
13186 2358 -3257
34320 14406 23749
103 7528 -1760
15215 27379 -3649
15273 19285 -496
206 3428 4843
16046 20634 -582
36712 12951 5716
28627 32248 -3298
18132 6250 25212
23563 30321 34178
10386 19361 -2318
20756 18103 -2730
5465 23731 -1523
29959 10161 25746
7390 8408 5764
36353 5526 -3709
4343 34660 13050
16806 34504 32459
1506 28356 -1439
11874 20984 30466
6463 11391 -1219
21037 28032 32221
17898 3576 24464
36390 24707 -3320
13865 37158 22952
27894 19379 -1008
13755 7128 -1580
4607 23885 -3059
9303 19740 -2704
33951 12673 -2142
30096 32501 5063
14657 27555 -2850
11897 16568 4409
9160 33470 17005
16425 761 26446
35989 14955 15785
35610 8647 650
19764 5379 32229
28950 22940 31643
17481 5123 8599
18438 11032 -3551
31478 14690 37347
15568 1047 -3249
23215 22624 -1358
5396 33663 26087
36271 28905 -868
1024 30781 19359
16284 14487 193
7523 4799 -2144
16397 17471 -775
32374 19488 30449
9211 11009 -2852
8360 22487 -2407
27507 9968 35446
25680 22238 24958
6170 3472 29700
31481 17101 -2804
27242 36930 29791
16866 3636 36864
24128 17492 4538
26911 29283 17633
31254 37152 6143
23403 30115 27064
24974 13764 6301
13868 25765 -344
94 27604 4352
29862 11573 17640
29700 3951 -102
8970 904 14791
9670 21314 -764
18830 14115 16008
2108 30683 -609
6559 4042 -950
31363 18647 -689
8828 19563 -1214
35618 16864 -337
6008 5157 -2985
19140 235 -1005
4894 12268 -627
9319 17557 -755
11270 32197 21610
4047 26899 29327
11061 35523 1266
21952 28722 -617
1766 17769 -493
34122 1249 -1117
20658 18404 -934
28375 33700 -372
9919 26636 -2461
21229 37362 -3325
10577 32409 -325
32360 14938 -1538
13010 315 1151
36562 10582 33918
7265 16710 -433
31211 17108 -1230
29937 18754 11774
16623 17190 -1785
35581 21641 -2652
4583 20860 -2792
361 21417 -3536
11574 26462 18029
31392 5543 -3540
558 7481 23805
17127 27591 11989
7611 35021 19919
22118 19287 26262
31522 14851 30960
30122 3949 -1468
14029 22315 31357
34972 8277 10805
28258 29150 24398
18824 11986 -2467
29130 18510 -3678
11477 20426 -2411
21785 33788 7866
13066 26824 28761
22059 36632 -964
17186 37220 -1905
23218 4863 -2720
1923 11143 18380
19735 15102 -42
18998 16186 14387
13205 22922 -287
453 24673 31877
7259 19788 9187
27876 12650 4611
214 4906 -3592
25637 11069 -939
30051 28502 -1400
5393 24151 -1518
24917 26694 -1824
34757 36263 -88
16464 36489 32965
21872 12449 36326
22439 36433 -2419
3063 2893 22551
4834 16162 -1800
12145 9653 -3054
4308 30425 -1872
5444 19493 30324
1024 6729 24999
17488 10147 -75
21291 9130 25973
14853 9593 27922
29241 2218 9363
33259 20706 11072
13999 28349 -2577
34909 10398 -2763
701 35873 15173
12726 1834 27691
24119 34237 30502
6675 5990 -3329
698 24344 1708
16706 3039 -1044
16419 32281 28741
33487 25662 19622
28724 36736 -347
4316 35574 -3081
17383 13608 34245
31411 9712 19145
14729 11346 -3357
21005 33125 8426
18640 36419 -830
36088 1933 2753
13303 22702 2156
29630 12939 5283
21518 5422 -547
208 3376 -3182
34099 0 661
8098 36291 -1316
32622 4706 29796
30832 1273 -2686
6458 21891 -2896
23961 12304 -1695
31303 4173 -1326
7035 12811 21900
18460 19125 11379
9728 30030 -1001
4810 25639 -2925
16678 37241 36634
20907 20917 -413
17278 1918 -2061
22029 11341 -3538
27182 3459 -1151
23011 7133 9764
20453 11294 24172
1346 29447 -1830
13645 468 1834
27270 27890 -3274
30521 15079 26944
13491 3142 9770
18647 30794 -138
24003 26383 24224
1208 19001 -2169
26786 31174 17198
27487 10953 14109
8992 33083 -161
15337 33545 -3424
23548 26779 -2725
31174 37134 -3391
32336 8016 36156
20860 30951 10307
29479 32234 17056
15341 27587 -2233
11694 26460 -2386
2117 35656 -386
35050 23160 -1574
14840 14293 -2866
2779 1589 9722
33176 26196 1722
9998 33126 -2209
36360 6245 21982
120 34379 2770
29757 8981 1706
31688 4839 -1120
19338 27644 21040
9790 18450 14774
13630 19780 13999
27138 21445 11251
16622 6738 26132
12280 15843 14887
29080 9102 4755
4267 1123 6771
17127 13979 17915
33914 32912 33431
33782 34497 -2203
16118 13574 15468
10232 25692 19509
29309 3173 17173
8795 29288 -2673
33117 5643 26596
2018 24307 8931
1160 23919 7148
35819 7674 14358
32465 14723 13327
2983 11566 31038
16283 29500 26307
17723 5401 -1265
11653 18153 -1007
560 2285 3424
23840 14275 -2245
24828 19243 301
31138 7397 35138
23598 13996 25485
1098 25717 32955
15530 8035 19707
12435 27580 -494
34506 19315 24004
2984 14029 -1437
36120 32837 -21
36698 34615 -2213
7884 30544 -2560
26429 1702 -1163
764 22546 24012
32262 2193 -2071
32827 6112 20030
5871 8381 4617
2630 23133 7869
34309 6532 30018
33989 36639 -2461
11929 26794 33978
3231 11407 25688
3472 17993 -3602
29273 6522 -3146
1136 13526 -3673
19873 12635 -2175
30890 7682 -2488
30242 35017 9587
22910 2217 19407
29406 17470 -470
15737 6622 -3347
9603 33746 31817
16680 8819 25925
28423 10159 17031
35349 14229 -2950
35223 24330 -2477
11652 26057 -3415
34239 11340 30900
13525 26436 -1408
19682 19676 -2258
24805 32187 -398
31250 15924 -28
17865 34222 29927
5106 27646 -3262
11069 12180 5687
17833 14757 -452
19557 16538 19227
36880 24978 20871
31096 32446 14782
19417 10084 -529
9190 33421 -2726
16885 27096 34880
2590 16640 -374
27587 13632 23901
609 14214 -986
1562 6742 1036
22343 5279 -3258
34296 13785 7532
11423 24036 -1590
8884 19278 -921
3279 19867 4039
1202 30696 5333
34908 2011 -2431
27360 18160 14539
22390 19135 -3377
21902 8251 -343
25278 29242 -3316
34208 30102 -639
34375 30176 26036
12754 4195 34924
33659 1003 -2602
29953 5358 25855
22780 23543 -1219
17267 7255 34966
19508 4625 1787
8256 30844 19389
2233 23558 -2538
15701 20067 -3058
27639 8479 -520
7165 18178 -1040
32725 3298 -1251
14459 19228 -498
33831 12504 -2441
18413 15241 22212
33695 19065 20147
35125 24128 19220
8523 22678 20138
29643 4957 36390
5127 3991 12303
24850 22855 -2307
3048 20144 -3638
1025 21728 784
1623 18173 8949
13945 14904 11434
25637 78 -20
19980 31461 27094
30947 16987 -1906
32610 6979 28148
21270 29048 -1901
26002 2250 18660
4900 1988 2253
10731 6502 -717
26576 16078 -774
10029 34182 19167
32386 27567 27095
23193 32197 -2817
29445 17053 -3542
12526 11557 -2418
22751 17360 -3663
1421 10954 33487
29897 22429 12218
5856 29452 -3026
5706 33286 -2922
15505 21400 -2330
37369 21466 24903
13885 10509 32379
25045 17727 5367
29478 16312 -3479
9583 724 -3166
3885 21388 23503
6969 6376 14826
16841 5306 30215
29287 16426 -412
34516 26959 -535
26769 20220 -3733
25402 2913 10946
12682 6988 15724
27647 30796 -3593
31707 13685 28763
29249 25900 -3370
1474 35635 -3716
21909 21633 32284
23514 15211 -2233
31146 10400 24337
3968 17358 16968
28922 9274 -3634
36098 8919 20859
30193 19400 -3160
3478 8849 -3408
27582 29619 36459
1032 16454 33848
10301 16956 -53
5948 9396 -782
295 25386 24371
1514 33665 -1025
16349 13308 3013
28927 26220 -3624
9680 469 -1343
31531 35163 -3379
35370 11246 26743
2727 30771 -1243
16410 36139 27947
34036 17363 -2110
584 1972 32917
9396 1487 -3465
10169 29418 -2408
23420 11485 -3449
28682 18818 -1852
1540 478 -2944
16814 37457 -301
33890 14871 22116
228 8685 -3388
9615 13316 -2276
11973 22196 -2087
36233 4397 20148
181 36870 -1756
7961 381 32850
23664 16486 -1865
1636 11297 386
28910 34125 6514
4311 14154 -3598
3668 14058 -788
31677 23495 -973
27972 33543 10153
8115 27152 1191
28329 25361 15608
6055 17892 -2162
22916 34615 18437
10458 35000 2158
7154 23742 9847
1482 4187 22655
9249 15232 34305
35936 33267 -1135
9735 630 -1788
15301 11219 35621
3873 24560 16580
20502 23276 5579
29519 13921 36214
12558 15100 4772
18933 9594 3718
17443 20120 30232
27253 22444 -2938
13162 36468 -2951
27616 9953 19247
30449 15815 -3044
780 23596 -2459
9106 27834 31576
26659 19724 -3494
19612 9181 20362
37315 21774 4808
37009 6201 -1332
4814 7508 11847
24676 29459 -3318
22941 30012 25125
31521 4153 28512
874 31251 35688
15425 19949 -669
29750 21819 -3275
20282 11708 23002
18381 16661 21750
10267 9731 7864
14395 35065 -489
29664 33271 36071
2478 27265 -1606
30373 29112 1235
22191 36690 7745
30150 21316 -3123
1517 11325 4279
1438 11407 16523
11401 18992 -3554
23642 5306 -2899
18543 36302 -2736
30332 24721 26037
36849 286 -3620
5786 465 20220
9629 11947 -3662
2008 21414 26741
22316 12033 -2826
20674 19667 -3481
16702 19788 -1245
24114 14923 -3684
2514 10497 -1735
10341 1651 29215
7602 18715 -3680
13743 11211 32839
17063 1788 -1066
16087 35006 -1393
22972 5505 -2896
22882 23158 -1637
8977 24059 17287
798 2890 14341
19298 412 2475
2847 27781 23582
4360 30823 -666
17456 35216 -745
10420 22307 27125
20344 17921 10467
23360 23051 29436
12627 12703 27087
7663 7261 -2939
3150 32370 -2456
10661 4723 381
4266 5460 19502
25086 37384 34868
13029 19409 -3129
22353 5742 14918
5251 29958 18410
11772 12811 -966
4936 21412 26968
31957 8437 -2593
24762 7054 608
14448 18907 -373
33045 5223 -782
836 2648 -949
232 30996 -2351
31310 9599 17525
37376 35309 28353
34004 7730 24698
11751 6036 4976
20485 8285 1520
29426 36312 -2665
32308 18556 5837
32699 30419 -1559
33545 31468 5304
29115 31042 3964
6649 25876 -424
34423 694 -537
24311 17373 -69
12465 8126 13425
21190 24004 18265
16646 33365 -79
2475 3618 21406
28623 4019 -3653
11044 23347 -3228
14205 28600 17345
8586 29272 13368
1200 4591 -2481
17952 28598 16238
36309 23571 2880
19533 8812 18697
16500 20099 -3214
16970 33941 -75
24544 14841 17865
18569 24753 36554
2732 34572 -2429
28836 14062 27485
828 14369 27897
3648 34726 18440
35825 12358 20889
4933 3378 6074
16379 11461 -2967
587 28221 19161
35687 27431 31867
9841 3671 15539
7045 23554 -1467
2549 15348 -2399
33368 14699 35329
10311 9478 -2425
2326 5205 21945
34352 25586 -1871
14488 36972 -544
16603 31552 29109
1681 3012 21346
6827 14883 -1417
4113 4453 35348
27870 35651 18628
26002 33165 4102
7108 10495 37336
13171 35903 36555
24378 26278 -2519
3855 25008 21933
219 34716 2864
10946 23011 -3266
27119 3740 30107
10600 21356 -2362
23420 668 13833
26048 9331 -296
4120 30941 -2177
2997 11915 -3040
26756 7161 4891
5191 31354 -3385
21925 15192 27785
19233 9141 33802
33474 32610 25749
20133 27870 -3725
13770 6291 -2107
36329 28973 29588
35035 21631 -2974
13314 34847 -502
14577 28434 33145
15194 10178 -3572
29366 17272 -108
21148 7309 10266
16949 9427 30933
13268 24099 -2910
6647 10733 -1558
1309 13399 -56
19466 33603 -2982
37204 13078 -627
10196 9975 -3111
16028 14207 -2018
36450 10703 11194
17844 26202 36824
23756 320 -942
31145 17568 19922
12244 19138 1782
2965 30651 -2903
23429 8605 11173
2252 6218 -71
36815 29120 -1534
13370 21235 -3313
35133 37222 -2964
1393 9356 -1295
20333 34394 -1134
10077 29825 -1902
8519 231 -2826
9061 1188 8850
8278 30566 10681
28570 36563 10378
4552 31817 7494
12187 14882 11570
6564 2375 -1119
30589 12181 -3575
32781 22082 -766
19812 33518 33824
14693 25593 -1051
26921 11890 35270
14505 7842 -1624
9642 1078 8805
2808 1537 -967
24298 31840 -943
35935 8245 17633
8530 18736 36959
35373 12029 -1058
36677 26301 29007
20551 11805 -1763
16169 31729 -1920
2507 5182 -2176
14139 28433 5666
32516 27565 22415
27806 1525 3769
35148 6168 23011
8146 1057 5321
14910 17809 13342
32197 5339 12357
23020 36133 24755
22520 600 25180
9239 11203 8495
28730 11268 7629
10470 4153 -714
28978 22319 -144
29978 17110 27320
8263 22479 -3486
20769 6763 25310
8739 24689 -3521
30201 32334 -124
22278 27080 -851
22141 8494 -3012
29547 35807 -741
31935 11653 30677
31872 11110 37102
27575 17802 8401
13808 26132 25856
822 20150 -2426
2259 28977 -3453
17078 34037 -2186
6273 8826 -1290
24099 21074 17234
10346 37439 37189
14436 30425 37260
31134 22314 14598
28581 17170 16135
6972 34921 30803
18149 20497 -2135
10893 10794 1104
1031 36562 25147
8947 36291 -1755
14309 2711 -2713
17435 15083 12054
30641 26077 543
17897 36817 7053
30074 7348 -818
18915 8271 -842
28359 2086 -189
29164 9686 28353
7495 14607 -451
20048 1872 33453
25754 25642 11088
13383 26391 -684
33586 1473 -3048
3763 28604 -704
31655 34056 14694
32070 19492 -1973
23696 27592 -628
24098 21422 34808
12846 1636 -1168
11827 37399 16130
25721 15446 -3329
18825 5110 -908
32015 8486 20024
36773 12933 -2599
35023 36857 -1680
31632 22749 26946
29028 31715 -2655
4175 22401 -2571
14557 31217 9928
30888 34866 31110
18291 21012 -166
1831 29158 -2566
28400 12358 28687
19466 26370 32242
21306 10191 -1365
28893 30875 -2369
9610 31740 -840
28330 28471 -626
10084 975 17156
7292 1782 -1988
28505 1552 36884
27641 12921 -2472
35252 7650 -2272
11514 11305 -1796
721 27763 10566
28843 25002 22014
99 24236 13832
23724 5362 -985
5738 28109 14780
8217 17708 -2723
23518 22811 -3533
21457 30141 36335
31587 14404 -2100
1477 35962 17827
18332 30100 9008
8262 3871 10196
10604 11456 -1288
23497 13296 -1363
14886 29423 -1261
33088 33678 18157
34437 17548 27300
32112 17737 31849
6238 20534 -145
22222 15004 -2723
28958 8209 35056
28091 34478 -2691
8694 4341 15314
5109 22635 -2898
8565 4091 4195
27786 23991 -2281
30656 24388 -2739
2959 20258 6955
16358 31413 -470
19016 19522 -1106
4130 18163 -1450
37367 29071 -1311
13446 35545 3635
11504 9884 -2171
24462 19662 10725
6421 3365 34103
19346 31787 34852
2806 36715 -2507
10638 15710 -1454
26448 10087 -3302
8329 36446 14184
9048 9725 6987
17971 10518 27151
18339 26949 14037
6004 2212 -3549
24009 10132 -2735
15153 4829 29555
28208 37453 1297
11340 26986 -1201
11470 4938 -1504
35977 27733 -2697
34919 13611 33853
12622 30971 -3133
17215 26968 8390
37171 4323 -1045
1915 20407 -220
21942 24702 -2578
19507 2546 -414
32235 33115 -2801
23891 2231 -2558
27434 20249 35722
12242 9867 -3532
36990 27189 21619
15933 33570 -456
13255 9702 -3585
12181 9790 14930
30251 5005 -2321
24795 10033 -667
28942 15843 30289
9346 9544 -2314
10287 7626 -40
9579 12772 -777
4157 35057 29833
64 10535 -3712
6786 28749 -2698
5273 17054 10158
11836 19923 9854
12124 14573 -2709
25403 25477 -3112
6473 18979 -714
37172 21827 -1459
1806 28021 24593
7994 8515 20485
11666 10010 -790
31701 19670 -3675
25073 19370 -3518
19773 12075 5127
4977 5369 11355
14318 10948 -3521
15418 18569 -260
10613 29121 -3271
19724 13612 -2628
10732 9883 -3296
17089 10097 30215
28683 7810 6240
12032 26086 -1509
7722 7926 -1612
1895 3282 -3571
21124 14548 -1888
32029 3251 -3528
12252 1624 -2472
22151 29243 -988
22589 21021 -884
11295 11930 -1971
18499 3932 -1615
20129 23446 -1067
4960 5954 -1163
15824 30456 13975
33071 25689 -1665
7447 9262 -287
12263 19572 -199
26842 21089 -869
37398 18458 4069
16900 11573 14887
30217 27780 21698
27032 7042 -1426
5134 27596 19086
35891 29055 -3487
12553 10681 -22
27024 15544 25479
26274 18771 -1363
25206 20891 -170
16375 10109 18775
5219 23592 5926
18434 16454 9591
14505 1095 30638
12145 13987 -2706
28647 4461 6294
3881 19688 -939
6287 31613 -31
29066 29486 33500
24705 33328 31836
37241 17328 5038
33320 34694 -3186
29232 18311 -1087
15176 7528 18827
21543 14324 30919
11005 28697 19007
31084 13917 28926
29560 9224 -2060
4507 26492 -686
10450 21274 -1704
30955 25998 -3570
9979 24490 1568
5211 10401 -3449
9874 12464 -1796
18719 6791 32158
18603 33012 -2765
28787 30518 -181
27937 33567 -3315
5957 2327 20462
9133 4432 1818
16621 29712 -3487
32388 36923 11853
10425 34369 -3010
19930 13877 -2025
10759 36823 -211
19837 12740 -3674
1560 30936 33799
31765 4919 28510
20546 22259 13299
20958 30362 -1727
17497 6904 12509
35356 12455 -2933
32765 16278 17152
25788 729 -1859
31813 32827 -1380
5738 26238 -1247
16664 27995 -1561
2053 12195 32828
2982 27960 28499
26916 34321 -717
10796 2414 21565
24154 18604 14176
27242 20388 12204
30487 5549 34610
18902 24727 -2759
27751 29491 -2826
23221 31308 17871
3977 35354 -152
25719 19308 22451
23145 15540 29338
22218 3394 -1318
14177 4731 -872
11903 13023 6124
21288 4869 -1912
31207 36076 35664
5006 8041 -393
9933 31939 -334
18772 6837 -1833
26401 26765 -470
29256 32414 -1800
35450 14423 35908
32211 29131 34976
20519 2097 29913
37442 25037 1705
26445 34505 12826
1750 22421 9071
30036 7648 21933
17581 31354 13765
24988 2353 34930
32171 8479 -964
9358 13163 -500
17120 27538 15605
22194 3212 30473
6630 30569 2942
18918 6815 -2379
28927 7408 6906
13553 24942 -3545
978 18982 -2006
31040 36697 32339
8656 9842 29492
19675 10481 24966
27536 19317 6154
12099 7646 -2403
18277 29689 433
13489 27719 -829
11080 26431 -471
28872 25181 29600
36088 34319 34063
14679 7614 -2341
20352 13696 23906
18807 34815 -1986
3874 9119 -3402
7855 34516 28121
653 34473 21335
35560 23176 -1507
35575 5093 -2830
11791 14415 -1214
8296 26858 -3694
28189 18180 -1510
3068 4940 -394
16494 13790 -1413
21216 13680 15272
27527 7338 -593
6264 11792 14600
21535 4935 4365
30893 35122 15311
20649 23535 -3684
29529 623 12604
25287 8770 -3547
24721 21250 2479
9173 31642 19593
216 21333 13155
10337 24142 13891
35384 24138 36506
22765 27073 -3559
20626 26251 -2664
21264 30982 -1566
24137 11696 14319
20600 1823 36297
13401 21223 -1847
3691 4320 -3064
12961 34651 30444
20122 20320 29638
14457 6577 31009
5286 17656 -1943
11434 16879 -2903
350 5050 -541
1362 25356 24609
20822 13517 -2099
17591 26528 -2556
15301 5660 -2864
7030 6896 20274
29201 20521 9799
22381 11098 32516
24491 10915 11689
16160 17481 -268
25016 16769 -3030
10590 4036 -2959
1570 5556 22583
9228 9265 -1586
317 11836 -873
632 28834 -2712
5200 18439 -1804
30688 5621 11590
29739 21269 -1004
3714 12093 25963
29729 3393 -48
2585 3575 -339
10842 26340 -2804
25005 4148 -1469
11683 15362 -3252
13330 35474 33453
32254 27801 -3706
37259 7744 36812
9289 10251 -2344
9567 15901 32163
12561 11423 -265
14787 32087 3695
27760 29248 11531
3329 29479 -3402
30727 18067 4800
34533 18525 -2457
8481 862 33380
7882 31349 -3417
13603 36627 29757
25939 32917 9019
19169 3103 24721
24523 20784 -2149
5979 8245 13644
30247 21121 -98
30771 19319 -3174
31411 15071 12625
24599 15317 -2354
18782 19171 -2921
18418 34486 -3194
32738 29895 -3010
1893 23549 -1629
13336 35141 17906
290 28879 18539
36216 9435 -2070
22955 32900 -3366
3572 37162 -854
33520 33156 37404
28581 1068 28569
11645 16358 -3399
19977 2045 18639
31942 27830 -1441
37328 25887 13263
1193 2483 -2664
11281 1276 1067
25875 7812 6452
2102 22133 -184
10996 3676 23579
36844 20304 26002
37043 12209 24042
4273 33974 8684
35730 539 -2077
21729 33776 9594
34838 25937 4226
36454 2351 -2406
29722 27878 -2592
25664 27299 6311
15849 25785 10030
5602 31812 34031
1585 20692 -1156
26484 24380 5820
33412 25967 6215
5108 3664 36341
10359 2438 -2812
31734 20091 -193
12023 31406 -3446
2033 32017 -983
2350 21596 -2220
5740 17028 -1767
5925 9868 15221
28116 29962 -852
22022 16997 -210
20873 8721 16883
35482 1673 -3395
26021 32689 -1275
17687 34595 -73
11916 27380 25822
858 4474 -2569
19575 29821 -1391
13570 3276 -1386
544 9038 30234
12606 27348 2165
18017 17406 20285
1368 18143 29365
27852 33119 -2675
17581 27280 4127
8402 20914 -496
28570 28396 25429
13677 30493 -447
34305 5554 19495
32553 17196 -541
12952 25568 -475
12902 23818 15292
23424 4872 -1959
12674 14748 -1114
30714 14074 30174
12909 32649 4787
24052 18578 -3027
30194 23428 29251
17488 24461 12745
34515 36533 -872
7878 32612 -3265
16116 22074 -3223
33806 31794 -2611
29620 23952 -3395
28844 13697 -618
18347 1319 -3103
22290 15663 -1128
28247 34433 11608
16737 1329 -1731
1123 1905 -1062
19725 2777 2998
22069 7539 6426
1436 5472 23988
36102 32515 -2042
36460 34155 26934
29036 13397 -1947
13404 33995 -546
15250 17919 -1947
23589 26297 -753
23071 9625 27256
6992 24417 -3282
31304 33048 8371
2280 10554 25766
13697 18356 17069
11848 11803 33885
2353 130 19082
9443 29212 13296
34407 35340 25239
7264 9058 886
7996 32707 -3521
16802 37394 -161
1415 20478 -2048
17244 30634 15988
1349 4663 -310
29832 12584 36045
19026 31104 23772
16827 4087 -2382
26419 12819 -3658
15351 27388 -2270
2074 20292 28226
13888 2703 -1027
10159 18183 18078
11753 9588 13478
522 18867 -3138
36620 22444 19981
1653 20391 11752
21863 16665 -1986
22363 23613 -3087
24370 24917 5684
35324 24285 21545
22673 19552 -1101
23080 14724 8393
297 18779 15989
3068 11753 17188
11577 33971 -1920
31380 28721 14831
2079 27275 36774
27043 33730 17334
2854 5756 18505
32667 36495 34028
12626 11690 18168
26539 12913 8674
2385 3205 26097
27288 22255 26087
32915 35178 -2497
6349 12953 -1018
29846 14489 -661
3135 33817 4973
30936 22755 -1556
29951 37092 32146
7507 23114 18923
7066 15087 5351
8653 27472 -1669
16109 18344 24683
994 19895 13705
24449 31371 -504
8554 22008 -3322
28158 23826 -893
17578 23595 -2665
19174 28348 -2584
20412 12331 250
31602 22659 37179
32023 20581 10338
15143 4946 -207
37494 23917 19279
10005 34233 -513
3066 5811 11406
19603 19922 14603
19663 7531 25721
1870 1609 -2558
22936 10390 17654
29623 18495 -1838
36225 20788 -1578
10753 13483 6265
5495 17156 -1385
32410 28836 13257
33217 15016 -3040
24763 667 10410
8814 10834 27189
9114 37454 16002
12065 35371 -538
18826 2129 -1142
31344 25295 36488
25286 6507 2038
17888 31195 -1909
4687 17432 23956
10956 5897 -1343
17779 20382 30927
2671 34997 12138
32766 37280 28454
36633 10934 15889
23656 24815 -197
24288 25388 3311
21919 19434 -2440
13776 11587 -2344
8615 3270 12596
31888 4542 25990
15773 28429 -2512
847 26989 21402
19563 16719 -2040
13954 11461 -2936
10885 36323 4912
26302 26200 -2093
25096 17106 -2060
17717 32243 33856
22565 22884 -2862
16524 22492 15032
4006 14910 -1340
19802 10768 35940
18881 14727 -1369
22955 7512 -229
21071 20921 -2150
19212 4830 -1204
36657 20577 2018
2103 25628 3142
15635 7196 -2024
1639 29736 25716
13161 8833 -622
5942 20256 24511
1201 6181 -1045
8366 3497 37359
26702 20632 -3262
33961 18143 -2229
12376 26894 -293
480 16572 -203
3999 28424 1588
15775 13799 -2699
29029 22315 4016
22626 2886 -2330
16818 1392 -241
29988 28792 30716
30156 29845 23423
25189 4212 -1109
28895 9798 23013
4681 36908 36659
29145 5611 30302
21406 14258 -1259
22099 22688 6164
10938 15498 27135
36601 36214 1579
28538 34367 -3700
35903 7303 -206
8107 7935 -3258
11639 15656 27830
5872 1733 27004
4963 29936 -291
36580 5899 15680
28 5683 -3524
30243 20455 11377
7351 34999 -556
8663 8825 -1922
27975 29677 240
15709 26766 -2945
36838 5987 36236
13936 30838 -2542
17847 13899 13889
19197 25585 -2866
8395 7169 -1154
19396 9942 30766
3670 6158 20022
2778 11211 -1273
31221 21002 26823
25566 4646 -528
17217 5262 14797
9009 25285 -708
19921 18546 14324
31710 6175 -173
14791 21347 5271
9745 17849 -972
15789 26500 19841
9651 6474 28775
7186 34722 14238
27062 15374 -3411
17349 24691 21043
21695 36590 1218
19200 5577 33823
22006 29537 -683
7466 6685 825
37087 19756 32044
18895 9037 5067
9519 9069 7625
23962 2312 -2429
18649 37178 -1194
10158 35576 6799
18573 18742 -2545
7566 16233 33498
32795 1432 -3434
32470 25200 34598
1418 16171 32140
17036 35085 29476
22892 8235 3424
539 33046 13615
31171 32382 34966
15490 15379 4570
28812 14283 -3061
2736 8583 29415
319 28582 -3061
23431 13578 -3230
10166 33384 -3248
6315 11885 -602
33357 7136 -3564
34542 12981 4773
18771 661 28457
6057 32318 21795
35921 4958 10829
3197 20830 905
34911 11481 -1286
30660 18801 -1009
31562 31968 25814
35039 16572 -2074
10808 15102 23380
3020 31151 -1468
27414 2872 -1800
32128 10205 23775
21038 30322 26563
17865 30258 16118
13407 12136 -3212
18540 35441 23962
11036 28976 33185
35739 3055 -2179
2780 18350 34247
15761 19113 -221
2261 8 11376
27037 25234 -194
19526 1662 -2961
6066 8036 -1029
20324 27426 -501
8862 17196 1439
2810 13434 -2518
26950 25152 15208
16860 3982 -1846
30655 5951 -1774
1449 29928 31244
12797 33414 27172
19207 9790 -362
28072 22680 876
18558 21187 -1898
1839 32156 4854
32849 28558 8249
2212 20468 -1904
36576 32661 8810
30845 17443 -748
17793 29090 -1057
9112 2622 -2377
876 35210 -3602
24879 1154 -2380
20393 7506 -977
31879 483 -2365
27264 29624 33437
16828 19563 -632
33095 29686 -1022
30710 7723 -964
24749 26679 -1900
4 11559 -1255
14986 37053 -426
33938 15654 -402
11591 28772 -546
7474 14731 20459
1901 19873 -3482
28881 17344 -726
15026 26895 -1616
16416 20355 -1616
31749 34585 -2158
7288 27615 -38
24591 27101 21329
5778 1149 -20
4541 11933 -2914
443 10702 17621
73 21936 24521
16439 6933 34477
5457 15841 19641
22426 21291 -3026
3477 20331 -3307
31463 9078 -2189
25979 27888 23630
22805 1329 3742
1008 3411 -2681
18220 16483 -1389
23591 17161 30002
32067 6790 -2707
32439 1614 6267
21805 7252 21594
34373 21081 22078
7580 4597 29730
19694 29385 -224
22262 995 21461
29097 31871 -3442
33508 8550 -388
29256 9798 -1532
27728 3647 25445
23940 26997 10244
10941 16534 -1551
21944 35722 17384
2197 11289 10106
13657 29075 11956
21999 1937 5687
2742 9538 35735
9853 21422 -2452
27670 7256 -64
36613 10585 -2129
24934 24165 35250
22212 20349 -346
14432 34552 -2729
8372 4635 -1883
32628 23341 27742
23100 28849 28707
35987 31054 -211
22079 24404 -1031
8119 14758 -1434
11701 31126 -3349
17286 440 810
2729 11629 24614
29151 25390 5228
7697 17597 17300
1186 18361 -2020
35829 1510 13188
15776 34196 -3066
6652 511 13219
29772 22083 15070
20583 26663 -3198
33843 34985 32381
7788 14055 -2737
18568 18305 -1552
25402 4245 -3723
9644 12894 22079
11499 4440 -1567
12979 36560 9933
28312 16394 -1897
35424 2408 17713
31883 5309 29809
21441 20831 -770
30477 5688 22970
27437 21653 -2482
20016 9668 -3232
33250 20490 -1108
12822 23998 28251
7582 25602 33920
27722 14323 -1787
11124 1699 -631
20967 30768 -1445
34400 20259 4259
24365 11977 -824
3730 11132 36507
8064 1900 37418
34198 6288 20778
28718 6674 -2075
13098 37158 4447
18859 6297 19823
1563 10316 -788
9504 7752 -3541
16907 30181 1892
12210 21222 1251
31263 25716 -3473
19511 25455 -1143
34563 15062 11415
15733 18537 29280
25621 14568 -1924
6460 26725 35514
29002 4181 -294
32343 8212 -3630
29599 22663 14450
15181 31409 -3691
14275 22535 19215
28590 4648 -1259
22415 6308 19515
5013 24323 16792
9960 2488 -769
6162 32436 -3072
6795 11421 33310
9755 27487 -2683
16781 22614 15964
25975 11594 -3077
2615 11863 5058
29006 3224 -3414
22875 4739 17593
22292 8315 -655
16452 28439 -31
17296 784 -3051
14408 32928 -306
29925 28877 -1779
2345 19471 13039
35555 27552 31061
34562 34921 -1010
18443 20549 -3418
26178 30056 26937
18343 11416 2724
27981 35938 -3472
1950 25750 -1161
28351 8734 -2005
34544 3245 20873
3010 3696 -1679
32015 26204 -1833
26265 29577 18604
16909 9415 27252
34284 2313 -1898
28420 14370 -246
10475 36416 50
32782 22846 -3202
19492 34395 -1303
9290 27194 -795
22680 13052 -2480
26454 7818 30746
10317 33055 -1145
20161 9118 -1263
5349 2745 12292
27320 6391 9307
619 25703 -2949
6191 32727 25822
35561 9907 -3622
16911 21 -312
32850 25855 -3599
391 5188 -2047
9164 34260 -1395
6397 875 32625
5305 3110 -505
15318 32001 -573
8476 10121 23190
10970 25214 -1929
6241 25026 -600
32301 31770 13420
28489 10148 13454
12231 27372 -1530
12129 23631 -835
16736 7845 231
2350 26940 -2496
32261 10531 -1056
32082 22261 -3004
4540 1319 -2404
25380 36022 -3277
22833 12138 21357
12712 20513 21860
25952 32833 741
7966 20574 22128
30062 3974 -1643
11980 24552 -1836
955 33968 -2144
1385 3287 21175
36288 32074 29416
36021 12086 1353
2403 15683 22017
5310 29295 -2898
12052 35406 -43
37381 25914 13954
11716 12261 24057
7508 12752 -2120
4423 35282 -2508
24868 4675 33191
3529 8303 -1450
15113 13641 23275
5614 26482 -3259
34555 24226 18723
4508 32547 -1471
2665 23401 -3383
34917 24670 30840
33016 3656 -2781
253 12008 15439
6041 12194 9663
25776 34025 33597
3552 34778 -1177
934 29789 36742
17055 31095 -354
32538 23868 -605
10730 10818 33804
20394 12565 1341
18230 3319 36978
35207 1471 21528
31341 22588 -2695
16610 5009 1082
11542 37250 -1593
15774 23248 -570
16065 37138 -849
11918 32537 -992
36406 16383 34103
6218 21431 -1490
22622 30573 -2985
24351 34724 14728
11242 22413 -1252
14785 947 37001
4294 22486 24962
4912 33454 34341
18050 11443 24347
10607 32340 23627
35404 17775 -116
22662 3749 -1790
18574 21041 2969
36130 25894 -507
1658 34265 30193
10600 16930 -480
26436 27774 -1795
27988 29092 -1630
30125 37022 -2288
4626 4890 -3303
25089 30239 28129
36180 795 -1870
29123 27195 21791
4287 35139 -2542
17445 31984 -3405
12520 6943 6710
2336 674 6322
17281 32683 -2070
19984 2341 6987
32118 28080 29892
19694 15120 17775
32444 6296 -2659
1965 17095 -2016
32215 8267 -2547
33252 18687 -1530
12624 7200 -642
33162 17680 29900
35402 19664 -628
5546 2442 -492
8064 3811 -718
30214 26200 18933
1884 35696 6140
224 29144 -836
34541 16089 25550
31126 16706 -2017
19913 37332 -548
32492 19338 27462
19490 9269 764
4701 7112 -1313
27680 31786 -1239
9894 11099 -3388
7021 29780 3764
27722 16072 -576
8542 20148 21062
24529 14220 1310
7059 6115 15608
5251 5729 -3091
17055 21169 -1006
7742 23394 20995
28223 23437 -667
20233 24615 -3478
14501 26136 -3285
16912 7646 8060
1441 8147 19653
30785 19856 9012
34506 207 23271
29920 8411 33344
8128 24374 -1642
13087 35139 -627
33757 4533 -910
30230 32399 8816
20953 9413 -2028
10678 29409 14221
34642 1468 12709
9167 18054 22915
17176 23167 -2060
21279 1481 -1412
16943 29745 12632
35697 35896 15541
26573 32257 -1495
33976 21526 -162
16643 28748 -578
22473 31949 6438
28311 20858 -2567
28883 25354 32955
34610 32754 7729
9443 36971 -64
34949 9579 -337
12680 33288 7024
22634 29274 -275
11499 13409 29267
19540 21504 -1527
5360 25356 26850
36538 10738 -1052
30957 36908 -2741
23960 34561 -2167
30432 12522 1920
32921 32234 -969
24365 4744 24277
9111 14941 -1986
13413 587 7689
4771 17925 -273
27631 5739 -933
22157 6186 -2853
9922 33774 -1155
22335 32528 -3597
36693 17986 1579
2652 30509 -2603
1623 1934 3802
35397 4953 5542
32912 8417 36861
30481 20158 -2977
7966 26167 32658
6158 30734 -1585
36682 29382 4608
35946 10267 -377
23838 28001 -3334
29358 34887 37277
3861 18066 18623
35800 560 -625
5653 16440 -840
33086 18437 -1871
20842 9584 -3614
30142 36991 28787
8701 16720 -636
5106 9612 28316
3488 19358 1959
23371 35292 -2354
4954 3374 -1607
8016 17271 -3193
8399 23933 8470
29372 17051 24684
14001 30170 -3312
35901 19107 -3086
18666 6311 21630
1015 4858 15098
4310 28099 -3033
5417 29942 -749
1705 14329 -2739
34546 16016 2727
28997 35633 -2155
9105 31815 -2321
22578 29067 -1609
8527 18959 -1830
17172 33222 -1139
31069 5103 -868
29733 32980 -2170
22072 24115 18165
19127 7730 32896
8975 34646 2679
36511 23995 709
15574 13815 5842
695 21206 -2492
21420 211 5649
18575 24412 23574
22204 9886 16690
13265 20494 -2651
9681 32142 -1729
8140 25042 1698
7585 35002 -848
34128 12815 -1735
9186 16845 23110
31318 1890 27799
1560 25103 -2842
16868 33630 -2039
13349 30953 -974
37440 10590 -945
8791 24909 -2986
24157 28610 -1032
18364 7527 15966
3980 4829 2509
18255 5898 14476
16040 222 -210
33594 24766 31149
27621 20487 -2028
37202 795 18239
11981 6804 11276
25708 21571 -184
3014 8019 -3002
7473 20427 6967
2563 32355 -3334
36535 19354 -428
17023 28856 16991
13984 34647 -2322
17946 581 -1925
35584 31632 37145
572 10220 -1157
25446 2830 36387
21881 15186 27249
30239 13343 -403
4656 20304 33960
18726 33229 11280
9110 13512 2532
30847 15338 2276
25225 6536 -2912
13312 3812 -1942
36357 35823 17662
6173 11101 -2732
18503 21604 2186
32566 7419 -112
31309 14769 26884
21542 32099 -65
12010 6088 2781
26315 15713 17093
12892 7534 16636
16370 20430 8373
7930 30861 19899
370 6601 -3502
166 791 -1764
14040 20517 9384
6948 17973 25078
3956 25678 2927
11330 9504 26990
14292 3389 11827
1987 28699 -1717
24907 17336 -1336
19900 678 -2965
32856 4819 25562
25023 8775 -3137
35349 28422 -936
707 35342 20925
13090 6643 -2479
17883 2019 -3106
1951 6390 179
8217 21871 23793
13483 27692 15581
27640 8874 -2619
9349 31117 10800
13196 10389 -580
12836 28160 -481
22664 33205 15244
4814 31760 34585
30895 1345 33532
36896 21581 33451
10510 3527 -3706
31960 5173 -1744
25121 35566 2918
17221 4590 31414
25297 1481 -987
17252 17051 -1763
25838 20671 12901
8644 13161 4090
3619 37485 23532
15728 12983 6290
13919 11902 -3076
7511 16442 24576
32953 37334 37414
5687 17615 -1539
2060 13990 35486
5960 7841 -1891
327 363 -3673
14230 23261 6826
32557 33567 14047
21642 33863 34836
6506 26228 -3263
20732 20314 -2336
17948 36067 5626
30327 7810 -317
8775 23016 217
35227 20947 680
10214 34733 15265
10866 27968 9217
37356 34568 -3704
11887 15753 -1546
11060 20509 -2098
24460 34405 -1113
30049 3694 -1822
23571 770 -2185
35383 35649 -2206
37279 9162 -3552
24482 31591 -2979
1025 9284 9402
26182 4314 -3133
18174 35142 -1203
36915 18626 -409
31267 4291 13614
6062 17006 -3723
18191 20042 -2184
10952 1077 20768
35830 18864 -1344
11065 29052 16675
21615 4958 -2905
26744 30806 -1210
11521 12662 28741
18182 12415 3570
16836 16136 15776
20119 24452 7832
18431 35725 -832
11236 13426 -1931
15524 1273 31257
24881 10037 21068
18294 34829 -734
33953 35290 -2243
23334 3399 -2334
26954 3609 20467
28767 22084 27221
2060 25449 -1442
30667 14402 -2041
6155 3633 -3005
14453 23963 11872
736 23372 18324
14665 5215 -253
10545 21431 32743
2035 21838 24689
36805 6956 -674
33239 22858 -1146
23754 25424 26159
14897 30360 -327
29054 3986 -251
25949 21155 32778
9201 17445 -60
23546 753 33450
18964 31954 9484
24453 33919 15781
20781 1161 -1832
18280 21423 36009
7056 35089 -2540
32970 23893 13121
32517 15404 -3059
15163 22457 12469
24518 18928 22796
7769 15925 9147
31075 23179 21550
11947 21406 -1765
27548 16221 37449
14792 18504 -733
9737 18015 26183
30439 8355 -2139
4871 9511 -999
33457 19212 -885
3698 26336 31606
33515 36462 34755
12768 7441 21091
22502 6704 -3433
16190 8291 5518
26612 33 -2945
16777 34679 -512
16315 24285 26055
12 13581 36288
2568 6898 18021
14080 13610 -2754
14921 29661 34544
2264 3747 -2275
5171 33870 -339
14334 32972 26614
35960 12835 -334
9497 30601 -1516
2670 21731 8420
2910 19640 -3480
24253 30728 2745
3229 24748 -482
27627 35643 -1437
4330 19419 15765
23792 31043 -2234
25235 7212 -1566
1273 10899 33162
5077 18042 18860
35644 15505 531
30001 2830 4952
14350 2044 36207
24006 35969 -2660
18585 22963 18810
18635 5100 -49
4258 4730 -3079
10439 10098 -3228
35622 10728 -9
30160 10554 11970
19083 19172 7217
27191 10394 8715
15345 19686 -3581
9969 18919 -2073
35163 34133 20696
13326 28230 14202
11352 4667 -1884
14055 6468 -2227
21235 36088 -982
13760 34565 -3424
25055 26929 -2691
20720 29889 -2336
7150 23048 -2256
3230 27998 -1092
7000 9523 34738
1923 5385 -1926
19432 11244 -218
3798 17780 14347
33898 12055 27878
4046 27054 -260
36922 19288 29480
7113 19920 -118
8606 18725 2043
1242 27265 -3178
12531 33199 1359
30399 8516 26695
26589 11334 24038
8290 36385 -3547
7921 34848 9922
14969 2662 -2400
10253 7193 8932
33787 30641 -2119
30873 21779 -737
31458 20385 -3055
34884 5421 16061
31235 21547 -3731
20850 23076 32233
16311 36411 15511
29989 924 10158
19886 36721 -1891
6320 21056 37244
6567 17017 -2975
16625 35394 -3496
21576 36144 15073
8365 22366 6018
8548 2148 31156
22861 16040 -3188
5883 11555 -1737
31094 21824 25864
10367 32341 -3024
971 19228 32451
23260 26121 -1186
19914 35358 -742
2900 23587 -757
15538 7250 -939
6823 14171 8173
22224 18280 17752
14331 34392 -2534
14691 9954 9758
14710 11303 -284
34979 3250 -96
11151 27499 33858
26881 12766 -1804
9504 33200 27113
23515 19045 -3234
35081 30525 -2547
5709 10054 -2767
5687 23131 22650
12866 25231 -1520
14444 16032 -3294
6768 2647 -106
34425 4078 17705
17219 1141 -322
20127 28178 10853
13175 23872 -625
24834 30991 8654
5441 30241 -2896
16475 27578 -1510
10728 6578 -101
3862 14669 21484
22016 27277 -845
29170 34601 -2867
17193 8319 -3333
21941 22317 -3441
20963 942 35981
2523 34677 -1562
3084 1112 -2351
7857 18941 24476
28381 33943 -2820
29459 31253 -581
16045 732 -2191
26841 27587 26283
28730 8719 3045
28375 3388 2233
33519 16192 16237
27873 8168 -1833
36551 24350 17382
36678 15989 -3635
6059 25515 22944
11860 3724 27393
7093 29663 -1918
9053 36960 -2991
257 15798 13249
4390 28042 27894
9697 34491 29304
19993 31874 15012
37235 3801 6075
27950 13483 1285
7039 29336 -1721
18942 34810 35153
18285 13350 19271
1264 30169 -1692
20910 20491 -2690
13443 15212 -1006
14874 18012 -2469
4330 25984 -1521
7484 18251 -137
29985 10626 -3498
24866 37329 117
5125 33556 0
9578 12040 -2233
11095 393 -2146
5178 25170 -180
29697 3099 5756
17335 33216 25493
22369 13214 -1220
26159 7886 10003
10324 3468 23197
1658 32586 -2684
23155 23070 23789
28576 3275 27632
26971 31324 -1059
10404 23328 -1326
11035 25959 34632
20416 25798 -734
8916 27254 6417
33833 16575 25097
26970 5090 18947
1182 9737 -1405
6692 36898 -3033
30713 25281 -2881
18952 25765 28448
12146 6057 5277
21786 2397 2000
4734 10234 -137
23492 19843 35761
22734 9150 -3422
10649 7214 -1437
18186 30652 6694
10472 1370 7107
35839 24942 28823
37227 18076 31918
2177 34107 -2571
11829 10593 32829
33939 36857 29313
16439 7604 37362
28066 22460 -1086
8964 13500 14300
19024 25082 5507
16662 18355 18931
27818 15302 18386
1389 740 -2444
24513 31476 28885
1784 3413 22337
21953 26504 -1650
34275 18721 20090
971 10392 14635
17945 16113 16855
14317 5103 -3066
2337 22746 -3482
36963 6057 -3655
6799 977 372
34713 13183 32984
22446 32401 -698
34526 32030 -2602
28284 22854 1456
5014 36946 -698
33341 4099 -425
4587 6493 7787
37452 7332 754
16705 11343 15163
10998 10491 12356
19016 7253 35618
20047 19631 -1506
4454 2444 31749
20236 4348 4840
687 36239 -1002
24106 6012 -579
26868 31024 24760
32970 12654 -1079
723 29322 16170
13179 1980 9008
34134 12068 -3233
4705 26540 33735
631 23957 -61
17976 4921 -1074
21765 23012 30171
5364 32835 23474
32685 2072 -1936
28105 16195 10754
12312 18294 -3155
19384 2132 10137
11929 23119 -3512
19641 18766 -3650
36947 70 -1670
26147 17643 8713
12666 176 -2651
3505 12843 -2834
20542 29009 11310
35437 28386 -3529
14668 29585 -948
970 8940 31679
18622 20557 -116
3210 31262 5155
36450 7472 -2464
9799 37393 -1692
25180 20163 9239
35913 31367 18114
12096 26382 -2568
37334 804 10032
17870 3271 -3120
3100 32808 -1965
16615 27998 -451
34154 2814 -1758
24574 18748 -1440
11913 17459 25056
35755 21034 -123
19631 13610 5715
8289 22505 22765
17021 28459 -253
8580 27819 28980
26567 27044 -509
7781 33862 7463
20466 36360 -2597
5155 6448 21972
31853 27289 -3660
18274 28839 -2406
27441 15187 -907
654 6966 -2841
34221 29305 -1599
6139 25487 -3414
5437 14485 31814
29559 34240 -3074
1200 37463 -2682
30519 3221 9914
18198 1817 11756
5455 22258 17834
12671 21396 -2269
26630 33444 -507
29863 30398 -1617
33215 35853 33646
35533 13691 23606
30061 24309 4593
14090 2412 -2374
13841 12805 17998
13884 17793 36641
186 29369 -866
13269 25240 -2556
23441 16505 14907
5037 35052 4262
1629 17109 -3160
16298 17590 5614
26355 27566 5813
10365 7411 14150
16059 9115 -494
27414 19340 30595
27805 23098 -440
37002 23782 35868
14624 21460 19955
9015 3187 35411
24045 27301 16086
2207 6161 22521
7755 18137 6428
24958 24706 25229
13380 27878 24127
15017 4469 -1248
22050 28845 7901
14706 20545 -10
19574 18006 33713
24267 25548 -63
13314 15443 7526
13050 33225 -2538
5535 24829 -1969
3234 6556 14969
2553 10881 -2342
27390 17074 31697
22590 23815 5436
21531 17276 -13
35698 13987 4076
8338 10833 10839
11523 24912 -1816
21261 11113 -186
6906 16121 -3640
9303 31710 -153
20005 12219 -3007
18063 33409 16312
36906 2585 -456
23655 22509 -302
11087 7606 -3173
5589 7018 19050
25091 13591 21307
649 9717 -1672
31898 36720 -519
35336 28425 33170
31897 31467 -2540
37448 15287 -32
32793 23750 -1177
6450 3583 37232
3488 21242 9033
13244 35382 12634
18326 21516 19924
36573 11928 36316
24575 20814 6963
20710 26038 1606
23396 22278 2380
10211 19044 32184
25460 16433 35811
10245 34193 -3033
3658 1612 10787
24381 36298 -32
26216 11432 20784
994 19780 21276
22480 21513 -113
21981 16727 7728
2387 20764 2801
11784 13008 15577
20817 13234 12741
34068 187 28516
8240 25600 32689
27097 10442 -3474
13192 7931 -2583
16999 12795 18361
16500 25793 -1721
23506 8053 7182
33180 26248 10479
21690 14370 -3416
13026 267 30767
26305 26407 -74
24426 19288 22819
29521 11731 15409
37457 10037 3162
4722 33634 85
23081 6972 32510
20543 28318 8302
25844 21254 8068
19322 16568 -2418
1548 24260 25445
17769 13894 -1955
17913 31715 -2232
11423 32173 -643
9981 29960 -2026
2059 27538 16762
21495 11843 -131
13409 34745 28683
8369 19274 29451
21799 27563 10118
11586 9087 -1176
33580 33157 32666
13934 19796 -2349
15601 5433 27864
14471 19665 35951
35829 31313 -3651
25032 31369 -2005
24832 6396 -275
7706 5830 31081
29816 28492 -796
3792 23094 19803
7224 24864 -252
14243 8083 -1872
21777 1359 17324
28548 21354 -1526
18919 36559 -228
9001 13740 9087
16638 7735 15114
27904 12476 23231
19801 27093 11898
18606 10452 15447
17333 2874 4917
8808 25246 -2338
36990 23918 -2643
9791 19043 -666
7756 32407 31722
8386 31459 -1461
30776 3225 -833
10236 12899 28644
5223 924 29832
36383 18772 -3673
9740 36729 -1791
460 29836 18132
22707 12276 -2601
2035 25918 34876
27302 22883 16146
10760 18911 -3051
3157 17853 12362
35101 34903 30296
29754 1251 -1259
17078 28782 -3663
10620 25380 25993
6293 35811 -212
27726 11799 -1471
32887 17850 27524
11274 4321 32554
27774 35420 -429
9244 32707 -2090
31737 19277 -2777
11758 21438 -2284
27793 29035 34492
1503 4313 32426
5231 30308 -1789
25811 9301 -3712
20278 35358 26093
15790 18559 -1265
20000 28205 -2759
3176 8894 -2920
1409 9625 -1680
27487 12062 3974
20168 19370 -779
30354 4875 21113
33059 7288 18502
7024 26330 35004
24812 14169 34433
18124 26515 6983
19601 15438 -365
9458 1233 1463
31427 21005 -2105
25398 19298 -1524
16071 20384 18322
9987 3824 -3081
6969 11690 -2336
10323 8553 -1184
30619 26912 -3547
2942 22065 36121
34179 20518 36346
36615 1853 -1947
23968 21116 -1166
19701 5281 36036
33526 15158 2290
18180 3385 16508
3664 987 -1492
28212 22427 -2548
6352 14902 -2740
25743 5045 -2172
20929 14812 -824
3658 21728 2990
30250 15891 -1193
34171 14032 -1732
19920 36460 356
708 24117 -1271
34768 31164 15000
16681 8165 12117
31199 1346 -906
31219 3070 22276
24276 18741 -2679
13860 33137 -2568
314 12294 -2461
30503 24874 11799
26470 4442 12556
35088 3524 -1850
24799 11615 -184
10951 34118 28988
9898 20679 18107
5863 36251 3318
13373 23094 -1500
30645 16786 10663
11014 11715 -2731
18803 1681 -2445
12790 19983 -1547
27969 31339 -3399
18748 1140 29918
13103 31283 35276
8509 35703 -2739
15984 32295 -3280
37391 24645 -3234
12023 27356 26009
33981 17406 -2470
14279 28517 10141
20479 27000 -2580
28466 30718 18008
12868 4283 -2184
15856 15723 20801
36437 5736 -2843
18386 12800 35582
1366 29758 -1530
13860 24632 -3345
13675 19771 26499
31876 20514 -3516
12535 33233 -951
12892 24561 799
35361 35532 -851
27206 23063 6133
3113 6998 22284
29887 34634 11035
16585 11758 -2955
21611 14272 -1991
34476 31567 -3722
28653 13928 -1723
31280 4734 8154
17767 28853 8676
30771 5842 18541
31030 22031 -2958
17456 2587 -1690
1769 6546 1660
8243 12322 -691
894 10903 -255
14305 827 35757
28109 12701 -3443
24628 36040 4679
997 11228 -1329
10472 30355 17425
30529 15668 -332
35814 22672 -1414
10023 4467 33764
26734 4959 -1824
24054 18772 -2127
13437 30672 -2722
1344 21884 -1502
3241 29994 -3662
8522 5436 20924
4134 20470 -868
32198 4592 -445
21343 15685 17095
28218 29627 37039
1928 1866 35937
33116 9048 -2522
9916 36022 34940
13874 10709 30990
11552 15393 -276
22781 7850 -209
32520 18856 -2580
23288 15073 289
29303 24883 28032
32346 34245 35101
3566 7977 33642
27938 27447 -1485
25965 12641 10624
9691 23746 -551
13426 31191 -1983
5112 27499 -1067
22313 36698 -1622
31768 34402 -791
3708 28558 -1202
35821 8581 24622
23532 14702 4177
34607 9064 -1485
18074 22355 -1995
32670 17379 24313
16256 10542 31472
17888 14322 36594
35382 15219 2278
8185 15818 -2916
20289 6361 20583
34388 8206 -2313
26827 4494 32464
15686 25800 -2605
32080 25607 27078
29348 19378 -424
2575 29407 -125
10494 11199 15184
21128 24214 -392
4010 18122 -2332
22221 22548 20191
20862 6327 -2221
10575 3615 6690
12332 29484 -3621
30989 35787 -3680
17808 17727 2471
29388 36152 19791
34506 8881 36872
2072 7313 -1051
33057 501 -1102
34385 27402 -886
3834 23779 -2975
22687 11923 -1941
22130 28722 32673
25838 16648 -2753
30335 17581 32761
21581 11263 17462
13339 36873 -1877
33823 17768 -2399
35676 16355 -813
609 17924 9552
30235 16250 -3631
23663 24536 7970
6482 13609 27160
23395 11275 18571
1791 31733 -1355
17856 11351 8512
17685 11137 -2740
1990 13119 -3276
6434 16655 -795
5729 26384 33746
3442 18181 -121
15830 24536 5290
14598 19991 -849
33086 9083 -2
35739 2367 3307
10441 4292 11280
22131 13619 23979
9683 11537 -861
25817 7531 -2954
28569 34139 17513
37019 15615 -2206
21025 4399 -2566
17041 30633 -1758
37354 6482 -1468
3688 33590 17174
37279 22825 8358
29952 19436 -1272
10141 21183 2935
5090 7360 29489
14845 10311 33460
4128 17989 19142
3998 8516 -1160
13756 13332 19968
7491 20399 20807
10082 1543 -1122
20723 6143 12328
6327 36462 24622
14112 6384 26145
16517 7615 26969
12288 11844 -2102
23572 2110 -2503
32465 23629 -2196
20420 32627 -2125
23356 34630 -1903
13966 19600 -1193
8450 16435 1797
11089 34971 -1027
838 5137 14890
37190 10055 36927
29716 32748 654
12514 27400 21867
20218 4233 -1687
2538 6681 -3513
21372 36975 -3431
8600 30281 -2223
30721 23016 -634
32718 19141 -2050
20640 33736 -663
17728 17550 -2677
8552 9438 -2821
21245 12077 -373
29576 30780 -1034
3164 3915 16671
3324 8210 27287
2150 22669 -128
2534 9133 -921
34546 36565 -1592
2161 23535 -394
9145 14757 -508
1528 31606 30972
31289 3238 -447
25783 20793 28596
20165 9471 -1134
31116 8818 24737
2939 16749 9307
29575 14265 8847
6020 12373 21399
16610 30857 -690
6757 28662 21248
2591 31328 -1315
27407 31639 -1487
10828 1115 -2561
22538 16554 -3483
7248 34341 25212
142 7925 -962
23121 27859 14037
30246 9041 -882
31613 32956 -1377
12220 16493 -3636
3681 24240 -511
1594 6300 12127
21955 3640 22638
10366 30129 10189
23525 35404 -3531
15194 4209 -1473
14528 31450 22538
26394 21937 -2374
10843 1029 -31
22144 37438 27528
29025 9698 12977
37347 3660 -1782
8751 20714 -1938
5242 6652 27381
37308 6772 -3459
34166 31400 -2980
7166 1606 -1402
2845 8667 -530
4601 12557 23992
35038 21188 3034
35036 6260 -1072
23933 11961 7660
19747 5869 34509
34055 465 -2919
27811 18493 12034
25717 18830 -3067
23238 9263 -1733
33240 37154 -3062
27423 17046 11742
36535 30546 36514
31166 20724 -2309
35560 22089 24447
32567 32847 -2182
22118 35648 15119
7018 34480 -125
2782 8437 24908
790 13841 -2127
14137 29535 -2777
17176 32510 -272
14852 17945 17888
6321 23153 -1972
8034 34777 -1335
14071 15746 -1201
15479 19966 11831
5440 37353 -1201
19127 769 29393
36606 15541 34460
7335 17405 6896
32642 9901 25541
22312 29796 17655
21908 27411 8251
4635 27538 4126
12908 32970 28623
20267 3531 -1444
32694 15836 -604
18398 19672 -539
26525 26698 36945
18330 8588 -1642
32309 2594 -2425
24042 643 19507
35502 9498 -1292
24158 4320 21605
18323 7059 -2782
13369 34184 24659
6074 23033 -3157
13885 4544 20285
12527 3976 11445
18559 34316 16688
16753 16299 15859
23953 5144 11977
4144 20596 -2043
18399 20971 36513
27750 33553 -1203
18685 29585 -3297
22668 12679 23727
900 3727 -1792
22651 17906 17043
32973 30930 444
16879 30235 -2645
15483 24077 10000
24970 26263 -523
1658 35300 11885
29564 7417 -1164
29296 18357 -496
28214 7420 -1323
23193 30982 5996
29851 11023 -1651
31160 20664 18652
14473 20353 4500
20849 6219 -2249
19125 6688 4269
34680 10936 20990
29375 33687 -247
23946 34415 25110
14844 18794 -649
15232 27392 -302
7217 31488 23073
35715 27905 32429
19583 25171 -650
14770 31191 24225
6289 27662 -980
25849 7487 374
2757 5868 22347
33138 34290 24759
31163 19872 -723
26555 36878 -2893
24283 19937 3802
14156 31410 25909
24214 23611 22498
14287 23081 28588
15348 32978 -1065
33291 20208 -2318
23093 7680 24848
37472 22430 34160
14990 16679 18553
7903 26361 36353
2243 15245 7382
13826 34215 7846
21185 19172 -3172
18875 19601 -3572
14687 3308 -369
6021 22314 35488
12378 6044 -759
14911 34134 -3121
21489 33346 25215
155 3322 -979
16272 16537 -443
4712 34637 -2754
579 12504 2814
9327 2405 32149
13952 16936 -948
29767 7 -129
11809 25211 7627
7059 1252 -1263
28103 14188 -3484
33005 16124 -1938
35812 36569 3792
33883 30081 -1018
9873 7461 -61
7848 7189 -3466
10190 307 -1579
34650 539 -994
13071 12509 -737
1133 6357 -2393
9702 17590 -2422
7324 3422 -2489
29308 15657 19795
1655 27345 36970
26597 23287 28145
12044 37384 -1108
7264 4037 -1956
32353 36601 2795
30793 9117 26468
11924 36902 20676
31346 8987 16509
1687 31503 -1304
29228 30318 14913
9055 29797 25040
8265 28823 21577
20500 21639 24144
31918 31033 -181
10479 8757 -2036
17643 10391 4690
9336 16820 32741
4363 26219 -1458
34403 33073 -1728
3444 13558 -1987
10897 13933 -2543
30862 9909 -3659
5576 14497 -1906
23165 22802 13957
32275 24315 29867
34326 28117 12918
6061 18240 30577
29507 36350 -235
36857 2364 -2221
18639 7227 -3460
31708 22572 -2110
42 10423 11914
19626 11798 31721
21895 121 23703
22001 32769 29772
20985 20006 -1592
19469 11273 -1894
14174 19580 10359
5066 3490 36752
15268 14350 11422
4981 34358 5710
7339 37080 5669
34012 3638 -3640
1753 13346 4928
32564 31293 -233
4889 4898 2361
32579 5620 24392
8108 13485 10733
29860 30824 17651
37257 7748 -1535
34499 14813 23042
24020 26141 14982
11470 5927 -2137
15088 892 -2205
31914 1856 5109
6657 7571 10428
23571 33426 32370
19534 16528 -3458
5947 11398 2924
2769 5353 -2903
26200 24258 -1763
34066 30765 -2428
20847 1727 -346
21752 17936 -3129
520 36328 2886
19231 26346 -921
6288 3885 18298
28909 14999 -189
12932 10476 36601
10091 25784 -340
23665 21739 -235
30916 25520 -799
12134 30966 -2622
30668 411 13109
37487 4697 -2293
7601 28410 -3274
28372 25246 24497
33396 35160 34504
31962 21782 24361
33282 35678 4298
33611 6677 -79
25221 21275 31928
16627 17364 4318
33648 24975 31189
26356 20031 -2521
18149 9827 -3622
2033 24681 -378
26614 14185 32741
2551 4894 -1905
3526 8259 -2587
7363 8735 -969
21711 8250 -3519
2228 37297 26514
11370 10637 8105
24388 925 -3196
31486 3143 3512
20118 18787 8345
20455 2941 -85
36567 4984 22204
27895 12116 -1850
9676 26699 -1052
14216 8790 -2105
12548 3195 -178
27934 36521 16403
27538 15832 24462
10230 26263 -3211
23299 22303 4632
12269 18962 16359
8231 15274 -2076
12082 25688 22248
25231 5198 -1707
32204 29862 17674
22779 30758 4297
13112 22472 34487
21270 5045 -2536
15489 15599 -2287
33132 7011 1871
1065 3884 -2294
15026 11110 19137
24298 33274 -2273
23877 15158 -3533
26210 36973 17905
27118 19243 29215
29410 21522 21683
31582 16152 31533
16583 22066 -2380
803 6986 37053
35528 27519 7484
33946 5407 35961
23503 32061 -360
27113 30442 -1128
28475 8936 -3299
11647 18501 37101
13153 21310 14049
21791 13211 -628
23612 35696 33160
31931 841 21788
12160 19629 32891
34198 15318 8302
21916 17611 -3252
23763 32813 -3287
27585 13159 -114
22034 20213 35883
22332 26108 -740
20225 27369 36538
9269 7082 -2325
21679 35078 -3183
530 13884 -2081
8333 13116 -2479
3115 16431 28325
21723 18671 11995
9990 2023 -2127
9018 23462 15752
18378 2501 33884
939 32250 -299
25449 27532 -3095
37413 34156 -3351
24630 33551 2100
5545 6058 -2649
21895 20401 2839
16312 8109 -3221
35767 27578 -58
14545 26112 -578
557 23753 -1067
26320 36917 -2456
8474 19430 24069
15953 3618 -2774
35803 34449 36541
13893 8779 7718
12944 12864 36992
16715 15938 7394
8654 8356 29076
34724 3782 12377
6454 15808 -2055
6673 18197 4188
66 5412 26340
19136 26264 17166
31454 29942 14527
28038 8042 -1947
13474 34937 4173
31574 21644 -1280
20037 11660 -3426
313 31606 -1731
15901 1880 -2754
33548 12004 -628
30093 31473 -2422
34343 25756 28300
28434 6096 -1699
11715 22652 -1270
14805 23115 29741
34010 3074 25860
29056 1978 32595
16470 25094 -1954
33828 25841 28563
8119 1656 11480
30062 16756 24918
16208 34212 -3626
8407 25424 -2386
31801 26276 -2290
3610 6709 -2785
17585 8325 12206
18626 27034 -2004
20151 28006 -762
13374 22579 -837
16174 26798 829
36432 8658 -1285
18228 4006 35699
3102 35707 -3708
22350 10659 -3515
31044 37152 18658
12542 10584 -2
35271 4006 -1510
8729 25549 11290
35189 34538 -198
139 19689 32987
29907 5128 16491
26496 9839 -492
26605 18685 -1426
20387 22908 34538
23712 14018 -751
2295 27853 -1367
34150 16720 27450
14552 7266 10209
19013 1422 -3302
28763 32982 33590
34787 5714 -3030
23404 4369 3388
5883 13968 -764
9501 15505 4926
14839 17092 -42
5449 32609 28388
21659 29036 5283
20776 1488 -2889
8663 20271 -2763
36085 20348 12803
29988 19124 -580
22160 32268 25450
4008 17504 32355
17485 10485 -2588
26296 19586 -2156
18084 15170 37465
11283 25958 8973
35570 16517 28409
32425 3236 14289
32724 3509 17686
25143 26598 2800
10673 8593 35108
16223 16021 20571
35213 32428 25015
1613 18409 -2111
16179 25899 -3361
5600 26237 12531
24682 23227 -2386
13340 31474 11142
36435 1834 14487
10832 35559 1531
35071 11497 -2501
11857 21001 21191
31296 1748 34035
34375 18965 -2339
8848 36679 4197
27307 36864 -3472
29685 20737 -781
37339 7583 33033
27506 29594 11580
3109 1920 29169
29042 20285 1704
36462 36947 -481
35296 32583 35984
23150 13132 -3286
21460 22306 -3463
13462 31097 14204
6153 26379 11320
8256 21487 5912
22915 23619 -3514
19356 3982 -3413
26356 15865 -3169
2631 14967 -2510
26599 7985 -1718
6059 8439 8952
9216 26589 3784
6243 15474 3160
21610 24369 -839
70 35859 2803
37353 5277 -3706
30574 7061 -2
10358 31678 -3697
30356 17566 5308
37022 17046 4296
18985 21462 22269
8569 34747 21792
18650 6405 32516
9284 22339 9945
1306 25523 -3442
9142 8425 -2907
169 36407 36440
31805 28595 -1887
36632 25422 -3680
9996 10572 -2196
26029 33264 -2915
32224 10028 26691
28193 1523 -3458
17950 20083 -2897
15116 23602 33846
5768 30513 27897
7435 34605 -378
27412 19162 -1333
154 6405 36278
25927 18174 -1105
20192 8230 -2171
24377 143 7958
35168 10463 36690
34271 23493 -837
3747 26013 -1471
11129 26769 -938
4085 33514 13472
13971 27520 -2851
28642 16295 15993
28222 24242 16580
4619 17914 15543
17089 11537 36122
17675 3640 7795
29883 33566 5216
20386 32257 13703
3189 9435 31666
27430 8013 -2057
26241 5543 -247
7610 15813 -1623
28436 2457 9028
12058 33241 1681
32676 16126 1709
5269 20155 -514
10400 20205 -2495
2519 34897 -1188
19043 31480 -2519
6189 30208 22576
12107 21554 4247
21833 33757 19846
19983 36082 36877
34969 5020 384
27210 7926 -1505
35542 35582 32829
13412 30146 27470
11024 11761 12404
3613 11978 -3199
29745 36210 9202
19077 17647 11039
13990 10265 6517
34342 4371 3853
33445 27906 -3273
15664 214 863
1871 17692 5017
4446 34638 -2087
36383 14994 2482
12453 10004 3394
28837 14513 1406
19251 32874 -1436
9263 22548 -2334
9432 6303 12803
13279 13252 -1784
23818 17234 -3504
18340 12820 -738
26547 17280 -1767
32578 17853 28383
13955 2007 -1711
191 35965 -2674
14749 5701 28729
34385 7757 -427
9613 25691 -2518
13183 33052 -1812
19892 10407 -1407
12437 35107 33762
16730 13427 23306
9997 31298 -3641
7726 23368 -2648
31066 3934 -2506
14682 4400 -2727
19009 30665 14312
14216 6658 15475
15459 25242 17389
12813 4678 31976
30346 5025 35847
2352 30552 -938
3804 13817 4668
14370 32471 -2280
3246 11242 16254
3368 26916 23669
5561 18244 -1283
26222 35299 14556
7181 1385 -518
3725 140 -3102
1052 32581 7491
36385 9144 2627
21530 10194 -509
18017 32741 -225
35619 10233 22626
34892 18739 -1852
24220 2389 -3374
5012 17000 -1924
4947 34852 -1234
19998 25119 -622
29802 30117 5224
9060 26246 -2376
37265 13180 227
20362 7440 35470
19715 37101 -467
1932 20410 -2848
17594 7745 -849
23119 31536 -2611
32055 9645 -2564
17829 22303 -309
35854 24226 29177
9974 22019 -44
27177 27311 22509
4911 7961 -2261
31855 27669 -2584
1366 468 -3431
14109 16876 -1110
10914 32309 12000
3682 14123 16925
3460 32599 33361
642 10955 -197
35776 4240 -2677
18724 18400 27268
32964 23045 9852
4917 26893 1981
29466 32023 -254
19985 31804 -2321
11017 16495 -2981
11088 4059 22945
14217 36261 -1883
35443 22628 -1778
27510 26865 -2997
6376 34315 -335
31538 13265 26623
32953 12319 -676
25697 28568 31905
5089 24741 3047
3973 31329 -1827
21194 14140 -2832
11056 1132 -2075
31943 20258 26603
36800 30836 25124
24722 30827 9318
17755 11734 15208
37176 13485 35558
1515 23267 3655
27560 10992 -294
26228 27079 -420
30956 33367 -434
32605 6722 13130
23846 14151 -3403
6532 16814 21242
30136 20688 -782
23759 893 2480
17049 9836 34915
506 34686 16022
21351 25918 -1897
13311 32677 -3286
36488 139 31704
34248 18585 29022
6241 36877 18509
10249 33781 -2732
27130 2498 17461
1261 35251 25182
32068 35289 24523
32890 5582 17235
10348 8722 -2185
5605 59 928
24711 6354 31855
5423 2214 -1499
19286 24610 -175
32992 29280 24817
28006 10174 3536
16339 16956 -160
30546 22751 3788
15749 24409 35951
21449 23380 11837
30057 3597 -2959
23980 32965 -2665
28045 17134 -2452
14746 33048 35297
29849 21129 34524
27310 37081 20558
7808 32364 -2891
6818 6028 -2069
34607 35966 19784
29755 11792 14266
23374 17403 -445
19838 16910 -1437
3015 32477 7364
4533 36652 10253
22484 4726 9511
27516 28246 3892
6424 11177 -2835
25120 32055 16627
1546 15320 -1953
32549 15576 -3046
5944 7989 -531
22150 3754 8530
6606 25835 6205
7013 28405 -638
11611 23347 10869
3748 64 2444
10119 15746 -496
25328 12576 -293
17924 36770 -297
2544 25513 13638
2401 8667 13707
16320 7452 35021
6170 35530 4578
35654 25657 -543
11939 11220 5682
12878 34441 -2948
29111 25432 -2368
12686 2835 35399
18645 23685 -1745
12249 34694 -1583
6878 6064 34210
14509 21741 22814
980 12481 20704
22262 32461 25270
1449 2764 14755
30407 6396 -1018
28190 36709 25904
23966 10230 -2460
22325 29383 -780
11548 5093 27249
4799 2479 28929
21232 15965 17068
16266 14404 4823
27979 11996 9643
10877 10010 -2540
10724 35481 29945
33369 33832 25670
5782 14793 32809
5602 30315 -890
15774 15876 10019
36704 12419 -1499
18133 3982 -541
26648 26574 -1718
12864 21360 31330
27483 21574 22821
8806 21097 23704
1222 36193 8019
18412 34950 6137
31441 22353 34641
29126 27745 6699
31085 24488 2941
1537 20279 18516
5983 23664 35765
13676 28585 9625
16535 6316 -1864
1414 3063 -2248
16896 13895 -1291
24051 9440 -1834
37413 31429 36825
19707 22228 17546
12082 36648 -370
4789 37288 -3586
2198 5999 6698
15415 6826 -214
8770 9512 35010
17915 23414 -452
2344 29257 27894
23753 28325 29544
24444 145 -3516
3980 23413 9225
21885 36447 36073
5455 9931 6326
4225 16537 27704
21099 2964 -2032
26554 24418 20237
21365 1097 -2578
23094 5875 21290
10132 8310 -2631
12085 2096 -3341
14755 3157 31175
22794 24816 -1979
32 35914 -2894
27800 7263 26850
226 25467 14474
31337 12614 34281
22235 31422 -2331
15495 5997 -3555
1708 21578 -2411
28803 32468 13750
16711 31179 -3552
2771 16665 8032
24584 27237 4738
7165 21212 -1070
18889 36374 -1479
2283 26770 -1710
23962 1460 -1229
28365 5046 30287
14239 779 -623
8561 26210 -3588
5771 15554 -3590
16413 18437 -3389
30544 7375 -1650
675 17337 -600
11264 27899 -1528
18589 28165 18324
25953 13097 2904
743 27377 13846
8904 15150 18993
2457 18 -2721
11576 18193 4258
17249 35758 28901
7091 19762 -1278
10631 15808 35990
8734 34917 -415
16974 34782 29084
8042 32167 -203
15921 36315 22125
26315 35016 9033
25436 6410 -1282
20519 266 -2148
33458 5970 -2964
9608 15079 25698
13425 2853 -3196
18808 30485 30231
5046 24213 17279
22320 2246 3032
30269 14123 31296
23870 29547 -1527
10153 14685 -2327
14607 28951 -2515
32938 7176 -2630
34646 34500 -134
9172 21080 -161
36519 8609 -3163
25001 14512 -2532
10142 4441 30146
1486 23665 15234
19923 36218 -2696
15744 23192 -343
18999 11847 25237
13410 7010 -2777
11811 14184 27350
19100 6938 8302
19950 29606 26317
25156 23537 30077
12761 5495 -1629
8387 12247 -629
20284 22849 6713
29622 16734 4255
6777 19514 2887
24863 6109 4007
2811 32032 23588
25726 32194 -973
2012 29179 -120
14132 29673 23434
31608 22269 20432
19204 2719 14222
29427 11469 26308
5312 30646 18782
2041 5514 -1149
35373 24974 -3081
12292 32724 21925
9926 360 33915
18594 9382 6753
24885 11235 20342
30982 18806 -2243
14811 8229 -3101
17180 17967 -3712
27424 3046 -2175
6502 32644 16337
18003 32188 -1769
8869 12789 1995
5652 32765 27517
24716 33298 26447
16374 10052 15211
24643 1276 -2893
6804 11241 31861
5889 30188 29388
37262 15009 -1391
22761 459 17544
729 1522 25922
32125 33135 -3135
33231 20797 35593
29173 35105 32816
30334 24962 23434
5140 10001 17141
37092 3888 -1562
12585 29304 -3301
25787 36824 -3574
12587 1787 24065
5997 28930 20961
26620 34337 19423
13715 16418 -2079
35580 1858 12391
30334 28886 -3277
12972 16894 1215
15966 9290 553
33879 26037 36879
15169 24673 34784
34958 25730 -2040
7727 5375 34570
8905 6537 9995
3972 3073 -3329
13301 28909 -2370
14703 7089 27287
25071 21376 13663
29150 26473 -2174
8591 23970 20330
582 23407 -2017
19591 4175 1139
3341 30534 18742
27558 30683 8540
6047 33531 34891
29972 15404 -736
23170 29328 98
7368 29228 32200
28385 10789 16611
9913 16553 -1964
30032 2793 -2554
5192 10166 26277
29754 29670 14116
9111 16071 5966
32319 15913 -162
1775 30255 -1324
31433 12025 -849
29756 9838 -2629
12739 18488 28564
31442 35850 -2563
4821 27446 5715
9374 19777 17605
25361 16766 9438
10934 30801 21211
1524 29019 32040
28776 14394 36118
26445 14146 -2961
17616 37019 -21
26260 27257 -169
31172 13018 19422
33920 8182 -1544
339 403 -772
12468 20672 -169
29827 4696 13466
32936 24563 27540
16883 30723 -2811
7012 26031 35301
23832 16794 2479
5831 28966 -2584
12331 23581 -3572
16385 25944 33816
15413 246 32454
12020 30385 -3286
1870 30325 -2335
25853 27498 -2514
26930 21766 -538
30354 14140 20619
22260 8956 -2969
2853 26810 32520
16979 15068 -1827
18423 4489 -1910
33406 24982 -656
19873 6615 35912
83 1650 33061
27628 13180 27208
9769 31273 31415
4583 14721 31668
20702 26968 24332
3591 36844 -332
34243 11130 28677
27908 25249 -469
31110 21034 -916
25329 13220 -1158
3561 18514 -1455
7176 36 14915
31735 28675 7567
10483 13627 14135
742 34993 -1894
21372 21344 36169
7832 26690 -3530
17008 9932 22943
24964 25412 31574
26510 35196 -3525
11879 11185 -1919
8294 33379 32311
36378 36648 34310
4720 10205 -1051
35751 25886 23769
17858 6144 8502
17401 36230 14533
34579 35225 3776
21579 24436 -270
919 33399 -1698
16499 20205 -3564
17468 19941 6294
26838 21813 15549
36572 12125 6474
30762 1049 18073
771 35780 -3415
36120 15542 -3045
2954 11339 36816
805 22485 -2310
35370 34936 1858
21899 31701 -95
11759 25306 2295
11266 35650 -1429
14319 18140 -2192
25762 36918 -2889
7500 36659 -3442
25590 30720 -938
19092 35379 -3075
16842 21290 22033
10858 7917 -1027
6927 18854 6428
9486 7954 8329
31577 36144 -1503
33043 34618 32224
5489 34065 21544
26324 26718 10159
1210 8380 -2991
12352 6479 31982
28611 6414 -291
5170 33545 -1282
14956 36401 -1509
26158 14107 7966
28916 34879 17642
34293 4129 8763
1050 23591 -143
12776 31995 -201
876 27400 20183
13102 37025 -197
17003 12516 12950
7803 26723 24958
25372 2729 -719
3799 36008 11434
9274 36187 31612
29349 6780 14792
9583 25084 3737
37103 25824 -2303
21598 10945 27353
24427 24319 17467
6545 31956 -1541
36792 13668 -3468
28263 24271 -2600
14064 20569 37106
13539 8214 18264
35988 19269 -3478
34338 5942 4117
185 35634 4554
20304 19530 23000
22935 26289 14508
30579 609 -2266
18941 14254 -631
35154 12598 -3069
11049 24196 155
9730 27225 -1215
9448 5535 -1886
27327 30790 -1047
18402 23625 13401
19621 5912 33542
6433 30543 -2772
25339 16740 19755
28752 16343 -3177
2141 9385 -1201
13823 23254 144
32223 32614 -3213
25974 30303 655
13275 19257 -3136
32401 25186 37440
7676 3046 -1884
33809 16643 -384
10925 18451 -1951
35095 2693 15947
24733 10289 -2151
10779 32147 -2872
33254 19477 12868
28759 3563 20028
4854 31131 -1022
19907 9285 13318
4185 28350 -3698
15965 27709 34591
23037 31560 -66
1165 16198 -2463
31506 32469 -946
19455 17947 11585
15052 7194 9054
12140 4179 20494
23373 27590 -2067
362 9230 -2720
18578 4480 15605
12693 1285 -1171
9306 14315 -2846
3281 19232 8477
6615 23715 -2414
30368 27127 -1431
33250 17905 -201
14015 31403 -767
8262 13561 16830
17810 36390 37481
33228 20888 -2197
15463 35056 22091
6025 17918 4301
5469 26034 28143
36014 21621 32668
18108 1967 -2789
24038 21157 14858
27269 10691 -3121
9876 28238 6768
36597 16120 9082
22095 8902 19439
19933 28311 9191
10512 3188 12547
34025 8480 1317
26192 29421 -970
23422 20745 20728
20854 8077 -4
26407 18945 3156
11949 5700 -3411
24304 36723 -782
35250 3378 27416
14662 33285 -2022
8267 27523 5190
34795 29716 -2403
5753 25520 7203
13678 36497 -557
27241 22838 -2041
20551 7378 33275
31444 25996 11343
8352 12998 -1914
8276 9810 20471
22055 9815 -2812
6541 30652 -1047
3172 25383 -2883
22865 18037 -3550
24272 2649 -3201
25351 35041 36260
19648 6784 -774
27791 11528 -1084
15986 19105 -848
1775 29794 9949
24392 24024 23875
23230 8325 15415
14572 14565 -1650
21385 7220 -1690
7281 4684 3245
5184 23204 -2070
36871 13865 -1716
24708 18036 -2923
28346 17711 -3188
36297 18009 -2251
29715 2986 -1403
18382 2058 2063
31152 34188 -3201
20666 10429 10402
33443 27560 -1236
543 16430 -2599
37310 22858 -3614
33178 19681 36383
22833 25495 36477
7592 23823 -963
24123 5417 31514
7360 8667 -1356
27631 13117 -3469
18703 17945 21135
14518 36667 -3576
17175 33237 327
12988 9258 30642
34722 13651 -3366
15294 21461 1131
17972 22347 17454
7319 1002 36574
16344 17585 27359
3067 4304 2409
19032 15131 -2038
34634 10285 -1613
7896 1906 -2438
36268 10748 20762
36937 9295 28771
20645 5111 -1400
30631 15181 32413
6133 23962 28109
21215 19805 -1417
15201 15719 21836
30531 27981 29987
24982 14805 18729
35551 34523 8101
5114 15617 -3034
17043 12189 22935
30062 15721 -1056
24911 791 24947
3944 33991 -1241
7536 31990 6565
34908 27272 15699
8415 23015 -595
11075 9922 -470
6296 25051 9338
11172 2961 10884
8744 11834 -885
30247 4853 -1908
24036 15861 -113
21835 14270 27817
6241 10802 31235
587 23623 2677
34650 7477 19388
4652 822 31727
22059 35252 -1360
20805 4592 19946
19721 1785 -2839
14243 41 28148
4704 12456 49
9062 29362 31025
30238 18937 -3231
24919 26951 18188
15564 18725 -3245
16996 22635 19972
595 4146 -1900
31901 29055 -1093
4190 36778 804
25020 29711 770
32480 2531 -3227
34127 22965 -466
13294 27175 9093
25884 35853 -3669
6841 21807 -3610
14556 15601 10363
20350 23200 -2983
24324 35604 -1213
5815 30818 20227
37478 11449 5143
11534 26585 -856
28233 31238 3503
33862 2265 2368
7490 10021 -103
23213 36784 -1499
14480 175 -841
9977 9973 854
9361 32554 -144
19626 13004 26062
21253 23843 -465
28324 29428 -1948
771 36176 -3656
14206 30494 18892
17779 7927 -2502
31950 33957 24098
29740 1148 -2245
9190 2435 -3658
5909 19818 459
28253 26884 11634
25080 13026 -3024
7408 9592 33801
3411 17888 8779
15384 31681 -1059
31518 19155 34520
28745 22659 28703
7520 10613 21784
20330 17619 -468
30171 8842 -3524
15885 5673 6572
18376 11169 -2021
27396 12523 -2375
5515 8052 16380
27906 35566 28481
16071 29414 24779
26216 25886 -2517
18213 7118 -2916
7262 1550 -529
17944 23804 26156
11474 18882 17292
29776 10227 -1618
36036 17039 -2015
14540 28826 -3074
25789 17164 -3323
17553 24326 14593
12823 1351 -1952
34775 10562 -1625
24124 12639 -1721
35620 5366 20467
4917 31257 816
27140 1688 31563
24922 4467 -3535
9341 24567 -1359
33930 19535 22406
30755 6917 -247
27290 20279 25975
6875 22620 -1135
28742 32974 -23
22213 32701 -931
6102 5028 -1152
34168 18490 35633
18775 10293 -2872
8221 220 13304
29258 29087 33879
28302 29375 -450
32683 21037 -1747
9829 27673 1198
23504 20904 34669
10478 33796 36722
30680 4622 -2638
20370 25099 -3034
7777 6258 -2830
36281 5450 9035
30722 22902 -1298
29148 12071 -2784
28257 23460 -1451
21352 19421 12593
7043 1630 -3431
12706 34017 37343
21207 34473 26127
4293 3023 32891
21774 31813 23137
891 29142 21157
2159 6872 -318
3477 25456 20742
23476 1530 2015
7911 31169 -256
31611 6387 -101
22568 4083 3907
11949 17228 -3545
2280 35414 -1492
18066 35845 -289
10592 34741 4467
30109 13319 13182
34427 17045 -289
13005 4238 2389
32684 23739 14360
32482 6870 -1697
886 26760 32246
25765 25531 4420
32711 15548 -853
6544 19618 -2544
15027 21085 9985
2243 21298 -1752
30601 5700 -3243
15008 2783 -3545
23785 16664 -2584
29204 446 -2699
32853 33221 -2479
27537 3506 -3351
19126 36121 -2558
34613 6404 -2562
29016 27276 -116
8249 11560 5186
7759 13124 -1990
12840 6783 -488
12040 8836 -1723
34187 36973 23637
24110 15632 -3556
29914 25004 36648
31933 5656 -486
11443 25028 25277
9836 18857 11434
14409 4345 -1186
28511 12935 -3186
10395 36377 -1694
26552 20293 13943
32197 19357 26106
21243 24131 -3280
23161 6216 -763
31971 3103 -2546
21252 921 2559
27421 5392 6076
31102 6663 27926
31219 6776 -635
9369 8452 9663
15094 13729 8041
24710 6878 21045
20530 26003 -1509
34860 17296 -2353
20842 2544 -812
32520 2879 31268
36369 21656 35218
24407 33898 -950
17455 16275 -203
19532 12357 -3699
22621 20819 8896
11289 2942 -1266
16091 875 -794
25323 25707 -3585
14862 9283 -3441
4031 13071 2400
37282 27571 10579
24218 5896 10354
17544 19349 6516
3426 3052 34648
25517 4069 414
32234 31365 19188
2103 31151 -185
19433 33494 -958
11347 35590 10471
5217 8577 -2197
2453 26587 -2014
33626 27513 13161
5334 8938 -2305
13489 6890 -692
26269 33558 -267
20624 2205 -1447
15480 14300 -732
35483 10092 -1702
21833 31524 -22
31632 13363 1034
14593 12978 2850
27624 12565 35345
9646 14242 -1479
13624 7634 -3192
32205 5026 527
34100 29557 -1223
7773 37104 -1112
7361 3627 7508
21936 24586 2552
34518 1157 -1176
12762 1584 -1719
30679 8841 -3465
3200 11687 15603
26215 13687 19598
20200 35153 33282
8490 23880 16253
34748 6144 -528
33704 31056 11168
27369 2954 -3034
8047 5314 29321
34614 28184 -195
26000 17569 16103
13214 28101 20869
3325 18732 -3152
2229 2185 25562
21393 28911 -1128
25409 15531 -1505
35089 25271 33785
11935 6715 18705
3562 20758 -3286
10573 18943 -3280
12736 7257 -3343
36492 19244 -599
1510 30110 2043
5003 19558 -3207
33256 32422 19404
5279 2340 -3484
22491 20525 20964
7676 35306 -1234
18937 23693 26237
13997 14089 -3496
33395 10048 -3088
34659 4541 -3171
1149 25001 -711
28575 11031 -696
26264 5453 13172
13085 14954 18865
3849 12049 28452
12540 27970 -1919
34982 13391 -2898
12978 1507 -315
24960 37188 7711
5476 6009 8887
31792 3202 16018
23109 1069 17219
21307 35499 -2872
26176 668 -1165
32965 7330 3578
3406 20047 12455
33917 5232 3975
25698 37267 8499
25628 19770 28048
1310 31327 3843
19338 9053 13842
27751 23605 35738
27921 2487 -3700
27788 25444 26418
4748 5234 13023
21232 8265 -267
3340 3273 -1277
27532 26572 -1252
6333 25291 1370
19028 26295 -1592
30192 13000 5050
4643 4330 32957
16229 14073 -3476
8792 30043 -1700
28052 28251 28163
27160 29832 5075
15284 15033 -446
34796 27292 -2932
26339 18162 -2526
30613 4319 11323
33234 14990 -3191
30202 2686 -1124
26039 9868 1837
35232 33808 -1038
17822 22783 -1952
25384 24744 11827
32479 24152 5062
6904 19119 9617
36706 15563 -384
25312 1983 -2674
12341 35171 21114
35664 3539 -519
8555 172 -673
24442 28123 11891
15391 4190 -3515
15972 24733 10527
8043 2777 13127
13383 6440 -1612
17570 29945 -2555
10130 17192 2105
11493 11057 26493
13381 2965 5837
30747 14779 4822
30347 10187 -2668
22144 24811 29802
5082 16962 10061
2306 31202 -3268
1469 8804 18609
24560 11142 -3481
25348 9358 -1649
21223 33395 -3394
17218 5941 31404
18019 26580 5423
22015 34704 5906
33856 3014 6299
33641 3851 -1497
6446 24529 -2620
21622 32265 16788
13272 3115 -1859
13536 1385 -642
6544 19425 -1667
9407 14642 24669
9409 27440 -1514
29561 20114 17195
21447 30496 30285
31525 2504 -2108
2799 21698 -922
9286 22779 3615
8748 1720 -3252
36782 4307 -2194
22280 25895 9414
30563 21869 9271
19006 14215 -2758
19528 28108 24525
15698 18397 -154
37 15080 15065
13694 4409 -3726
32626 26826 15137
28349 16978 18655
37184 26157 -91
34475 7190 21982
23753 20508 -3344
29600 18817 -1892
33686 6978 -452
30055 31837 32349
20822 22298 -1143
14303 13243 -3046
24834 27657 17091
15072 25512 16005
2048 4052 25308
8591 1896 19465
33071 22613 4423
24270 21207 -1867
21313 23643 623
16499 27834 -621
23262 35976 28261
5209 17715 31728
26520 37043 -3712
3958 2818 -932
6915 31598 12182
22291 15285 1077
6950 22056 -2000
5832 28852 -241
31340 35975 -1463
4231 35978 -3546
13855 20130 -2653
8383 22646 -2152
143 21920 -1986
14005 19614 12023
32515 16480 5121
23352 5197 34087
20578 11084 29549
8240 28355 35551
32431 19332 -1153
36228 3732 15013
33959 10831 -258
23446 36366 -320
20541 36358 37477
25029 7702 -2163
2389 9128 -2422
26119 33681 23019
10291 36384 -1501
13466 737 17923
17775 21639 -961
5006 26155 -2540
29649 28816 -1687
6676 35955 -1525
12862 37001 761
17942 8874 -2503
20545 33478 14534
6267 20781 -3099
7337 33500 -3343
29953 23425 16426
32883 6904 -473
10369 27804 6858
4847 25894 -1704
8049 36201 -3551
2661 36702 21453
19817 14550 22419
25348 33146 -1404
14816 26056 -2599
25816 12226 36408
23082 7277 -370
11270 34344 32424
5995 14440 22797
33618 32187 -3350
3272 12160 27715
18389 17178 -2245
17814 1736 -2625
35058 8796 -3722
6571 36560 22249
29801 7412 -2104
28183 26624 -1299
3441 26866 -2873
28721 21965 -3266
15106 17962 -896
20668 24750 -3412
25398 2562 11
13899 30569 15219
34350 21317 18033
36689 20652 -2768
28652 31021 -835
34511 29510 -166
31015 2961 -1842
22059 13203 -1349
17534 33688 15897
28365 25365 -830
20893 24259 35714
17070 31159 668
8576 33608 -2273
2713 31742 -1975
2501 8923 -581
25846 10201 -2396
24512 25035 -3522
34275 24948 -1993
12181 6265 -1866
17854 23145 13974
26996 10437 15773
26095 31090 -1985
33591 35326 -2653
34386 1641 -52
5254 700 6872
17943 16094 19424
24614 7089 -747
18613 3644 -2473
1008 6598 -3552
35350 21723 26671
19536 4760 12298
19402 37221 -575
34651 16934 29568
33804 23912 -2062
802 21018 -1590
12044 6992 -1395
24622 3979 16386
33741 11037 -3608
14907 14734 901
28629 27439 -2404
28579 12355 31012
20853 2586 3110
5696 20240 -275
16357 32287 -1323
9573 27678 -2103
20212 30109 7583
25713 36477 11668
27607 33701 8412
10425 9496 -643
10545 36412 -2760
8118 34796 -2065
10380 20365 7396
13503 17559 -3216
30790 36164 -890
5946 21098 6360
14686 36202 33612
16381 29480 -1767
27072 4193 29330
10500 24628 -226
10635 28012 -1731
6944 27479 -2193
3984 13553 -3568
20614 1126 18858
28620 21417 -2034
20045 25020 13189
31315 9269 -2503
24802 1346 786
36884 22886 -1814
8287 6823 30056
14192 23341 12402
13506 32101 25547
31515 11368 23240
13062 7512 1187
31604 37160 19141
772 14422 28761
29406 15581 27831
31362 18141 4567
2774 37420 4768
18474 21582 25743
34922 20655 -1070
30686 30095 -2781
16441 33606 36947
19282 21653 18687
28675 18664 -419
11171 22227 21549
18494 34300 -2905
29498 26821 33301
60 32005 15421
31408 10462 -854
13947 14519 4003
36245 5409 35047
13869 36696 -1322
11862 29826 -3205
17602 15378 -1889
18515 532 -19
36128 37098 4035
30065 30631 17228
22980 22218 -3156
4097 32872 36574
12495 5029 -2058
14457 23713 -1460
706 17460 7448
13926 35229 10724
20279 19690 36580
6090 15591 11373
10488 37135 -1354
32294 18852 20918
12718 34845 4912
28586 32636 -2672
16430 28352 -810
24052 33349 11076
4405 4293 -28
5116 24783 -1002
22687 17686 17966
23481 558 -2610
14545 36698 -1506
37265 8116 -1181
11351 30373 33900
27296 17855 34680
17687 30195 8928
8794 17136 663
20188 5693 27065
1139 19467 -2831
22820 8290 -1764
22529 30690 30589
12543 16949 25918
23952 36472 17349
8160 18801 -177
10507 10749 30615
27231 23162 -3328
19302 7464 18220
29690 15266 -2461
36509 32855 -2852
6770 30036 21651
18354 20001 23756
22894 34932 -3386
17273 20474 8752
1178 21160 -3694
15101 2941 -1544
28068 23779 32420
35164 21282 29735
28471 16397 12300
26618 22757 -2931
13705 4350 14612
8115 11377 27753
12955 20469 24058
13626 8213 -2260
21878 722 -637
19344 24250 21851
10923 27540 36490
23922 7276 35028
18672 24733 -3061
27007 8841 21499
6500 34426 -2347
13203 17405 -1524
30064 8574 7968
14735 25573 15872
11806 32266 11372
7990 25317 8491
29283 11723 2674
32277 11804 14053
9599 36420 31159
19404 11463 -297
27504 24543 -2598
9941 35999 -923
31453 19749 -1356
11434 35084 12262
37329 10156 12327
9455 10122 -1300
25313 18844 -1690
29474 25730 35434
30961 32278 15043
30593 5937 28870
5110 2426 -63
11227 25518 -208
4533 30026 36
16681 31616 6313
8332 5690 27936
15893 22694 4052
9302 24775 -3332
30190 19521 31037
5855 24808 25881
32014 16392 35677
31834 34629 28052
10888 19520 12873
16330 6949 34929
12105 32861 -762
11431 30923 36142
21823 16535 12211
23059 17446 3937
34370 4463 2402
5580 36989 -3152
9207 835 16504
10232 6084 22799
20158 33033 2360
18824 32094 -925
37023 19868 -3168
7541 18919 -3323
8293 18571 3823
1639 19422 16673
17123 15941 -3561
17406 1765 -1879
20179 33099 22487
29565 20487 27849
23576 3996 -3180
30550 33638 8584
25208 37070 1413
33324 24902 -1728
35386 17928 -3532
35488 2810 -1284
33289 9348 -2072
12657 13099 33383
933 34812 3476
26033 3940 -1226
16638 24682 -3100
28145 36662 25979
18421 27122 -2024
14516 24003 -3590
13361 30255 4918
12354 12829 23775
9105 31729 -2558
22522 16136 -2482
34014 33742 4402
9211 27459 -1092
6485 5999 -2886
33192 18011 19217
999 11262 1222
34945 14197 18248
35969 34926 33006
33485 7866 23852
4710 22191 29222
28802 14093 11444
17931 35726 9947
8673 19109 -1173
31267 14468 12526
926 907 -3347
11419 21313 -3627
23270 1526 -694
35416 6508 4153
2255 1050 -2016
10550 14020 -130
30135 9441 -408
11572 24975 -1664
17242 24612 32376
10149 11284 -2766
36514 35908 -129
7447 35348 -2187
15785 35283 27856
33526 4418 -853
23742 8155 23643
25043 25992 -195
12043 10427 36791
15332 34212 -1422
35258 20787 -2386
35308 29121 -149
31210 25512 25680
21214 27708 -2747
30436 13504 20157
22318 26065 -3246
32070 5780 -2332
12358 7746 34495
10229 1531 32368
1901 10811 -1384
36794 32446 -2164
17202 16154 25064
14088 17030 -1925
25143 24511 -1833
12406 37320 8707
17404 29453 35855
17098 12571 19777
26702 21172 -2356
32253 23719 -310
34158 26189 34274
5503 35750 -3291
13757 21244 -119
14937 8291 14914
10182 22444 13899
23295 35423 -921
2528 5202 8452
809 10609 20623
23644 32519 20649
23885 5744 -561
7030 21906 5617
25435 8086 26198
8015 32200 2102
21044 33354 35876
13903 2801 30376
35188 17282 -444
8971 18429 7483
23029 31205 -1696
20794 18792 -2471
4683 3785 23336
11114 8232 15112
35812 15980 13457
20830 14481 31039
28310 20059 19341
32978 28415 24732
37305 20080 -2183
32403 1671 28840
434 35870 25390
1966 35952 207
15991 16811 -2458
6502 3281 31781
36361 28846 -3241
31254 18747 -3476
16826 31063 -530
11685 31869 4127
26928 28863 -3694
31859 29275 29416
34932 3228 -2552
35199 6883 -760
14982 18016 35829
5071 10324 -3473
20292 4834 3249
6213 35785 -780
4021 34781 23997
18585 14873 -2318
18927 24814 1003
27016 34586 -2042
31759 2791 -2013
3244 7569 -1724
1316 15931 31254
3284 1494 -1831
23572 18898 -3517
36686 7900 12760
12346 7837 14660
13119 14164 21531
22095 17598 -1748
7056 1756 29472
593 23358 -3177
9458 37064 10538
21533 31583 29994
3400 2985 -2272
2851 2942 -1294
2213 13373 2899
5655 4175 -2455
15989 17532 20186
6758 6543 -2479
30217 35246 23526
13990 16683 -608
34449 35343 24659
19547 18654 -2522
33634 24805 -3131
35991 28548 381
31341 6869 4245
11937 25888 18568
12728 6743 18991
27791 23718 32919
11728 29695 -957
30732 9511 -789
34162 10140 31055
26543 18283 20874
7739 34155 25685
7679 17954 -2858
35527 15147 14566
719 36811 34006
2555 23805 23359
25307 10843 -3262
4379 13938 -223
9026 12168 27033
11007 29816 -2667
9763 30443 -3451
32688 3497 -274
2032 16971 -108
14264 6586 16419
15790 29646 23942
30253 33359 -2533
26752 17841 19897
32409 35770 -889
20602 8749 3378
14062 16951 11233
10507 16835 25598
419 15637 -1159
26858 29885 -1610
18253 31492 3591
21681 33956 -1495
22611 1856 35355
10421 27896 -1966
21081 17510 -1915
29030 20665 -458
7210 17502 10977
31019 8814 25351
22230 11570 -250
561 22855 27581
25849 36954 -1903
1676 37240 -468
3178 3216 -1887
23753 21954 25651
20143 28231 -1185
18394 23790 -2479
6733 31744 -809
30117 15082 -1293
30546 14199 11627
16297 16654 -1857
1421 2905 -3111
37295 27283 -2154
33459 34905 -2833
174 30148 1500
30545 27401 -1845
12159 11947 -2988
5719 15277 -3402
9447 28927 -3693
14808 18538 -3362
16871 1634 -753
18777 36636 -2074
5868 35477 31886
16894 10040 -547
26360 35305 9465
26781 32916 -2831
27812 25352 15192
12197 1967 14563
14684 22100 19954
1456 18768 12506
19431 18618 -1099
16537 29407 -1546
9 35973 -2198
14245 396 24990
33922 15953 14108
25055 3964 -1179
5171 3158 -899
11804 28038 -3461
36916 10726 -2213
36449 36720 6491
875 17893 10527
4534 6686 11279
3400 25769 5100
33427 34550 29805
32263 24176 -283
9929 5100 28259
15641 5567 29213
25330 30028 5934
14770 11340 -1883
21418 11615 7646
12788 37370 24949
36087 12043 23352
20606 24229 -118
28514 3320 -2593
35164 1450 -2802
35185 36365 -2631
32580 30646 36276
18094 5394 13548
1546 37414 9927
15397 36562 -1108
23751 5342 1667
1820 35816 -2334
30844 6175 15963
36415 35681 2532
18354 7973 -2061
17870 15816 29006
25696 9037 36539
26952 7952 32837
25117 2111 -1740
14964 27376 14736
9636 5267 17533
21152 12227 -2406
26030 29841 -1320
19935 33924 27236
37417 23115 16198
24349 9389 8552
6910 554 27516
26603 19846 -1596
21529 8494 32118
1463 21957 24199
14080 24776 -2881
36902 7434 -3392
24150 7931 -1252
37111 35167 -1132
35899 35743 29091
19347 28670 6666
4368 22138 -888
37482 31689 -2371
18124 11098 -3244
18578 5101 25437
30694 2980 23163
36560 1210 -2679
4035 8182 -3021
20245 2106 -2814
3419 14265 13282
30561 28563 -2453
24854 914 6260
32880 35723 -1400
24232 24976 10508
25793 1921 -3743
31538 7447 1124
2950 32620 -1926
16993 17345 -2816
3978 6234 33910
22041 19089 -239
7595 2938 -22
168 23576 -2760
36962 8555 7982
26609 6051 30624
30671 4987 -3725
36354 11127 -2154
9877 35518 -2009
9439 4637 4003
30402 21622 32810
25492 34544 -1808
19700 2275 35943
8596 29 -3732
14734 16513 35988
21348 4016 21980
2709 4731 29610
20874 19935 -1696
8672 8080 -1960
37002 11536 -853
15598 3702 35393
21392 19941 -1249
32962 26383 2354
4810 33948 -221
27645 36251 11507
25778 31310 -1805
11895 534 -163
36980 5593 -3255
37249 22233 -264
6517 23011 -1396
30823 4689 36765
18053 27805 293
29242 868 1195
18490 30336 17444
4745 33430 12991
21739 10337 -1155
23360 18012 7236
8269 29668 1218
18649 22685 16893
37470 6907 29545
9240 14842 -2208
1006 19112 10243
8437 34028 9531
35346 10945 -2181
21306 36196 -197
36034 19275 32644
9254 27485 35243
17207 25224 8838
22178 35994 16251
9863 15661 29453
31165 25575 -766
32703 31191 -128
13987 27795 -2382
16813 12310 8436
20772 36280 -1612
26011 24407 10822
28489 26706 -79
10450 27245 -3280
996 19502 -308
16733 14382 31841
27580 28180 8053
32388 36482 -2647
8981 25645 -244
32325 33716 -3181
32468 28833 -1307
15359 10419 -1960
4632 20179 -485
4628 9350 4006
10573 28792 -2699
27025 9340 -607
9823 13173 -1893
17378 30802 -782
32837 28368 -2775
16115 5613 14742
4174 18694 -2637
18454 24427 -1115
24365 29852 32809
25669 22046 3894
26381 33642 36390
1202 24277 -234
4052 15498 -3185
34666 8651 20286
17466 22573 8904
26424 17610 -492
15054 11163 -3375
12283 31757 6429
21151 1800 32250
5845 27432 -710
11534 17028 4437
17977 8721 25224
3680 15422 15713
24811 7269 4366
6173 19014 -903
20905 30228 -367
25871 34240 3625
29825 18839 15533
31626 7180 22598
17797 28891 -3099
5688 17983 -1740
12775 2379 -3418
32932 28728 -1851
36745 23759 -3739
12652 37456 14879
9612 10444 -1434
21070 8270 34856
2150 7689 27128
14253 8293 485
33937 24470 -114
30023 18013 4052
31093 34489 -946
24351 11686 -3635
5655 2755 16824
30056 22323 -2322
35688 5856 -1960
20618 2041 -689
33072 32973 -1157
3421 35324 -190
26681 13973 5049
14352 661 -1808
29044 29262 23766
10105 36865 986
409 3828 -2514
31525 17012 -2285
24589 6845 4550
24986 17719 -115
7396 2247 -3576
12848 29421 -2962
30882 33245 -39
32149 27577 30352
24188 32876 -2698
31180 16738 -1859
15500 16410 34500
13086 35164 -3664
14046 6464 -2359
8018 12291 16898
29242 27544 21058
6591 10683 24713
3467 21979 35222
10055 28212 -899
26250 33086 -2961
33499 16877 -3725
29877 1605 -3474
14704 28445 -181
32539 36642 -781
13248 2407 28923
2498 3679 -2399
22072 23170 26005
2555 21034 -2954
3118 7595 18622
8695 13106 4533
10835 26490 12893
19337 997 10933
28836 6211 -775
21475 3928 26356
31727 4918 16992
33617 9957 -3268
25001 19108 32364
1712 14865 22803
726 3905 23076
15650 12191 14995
19238 9073 699
36022 25733 -2596
15554 34701 -2461
31805 18536 32056
17205 15987 -2828
27040 1021 24796
14446 19314 22647
21274 2603 -1565
21709 17579 -1909
21307 26498 11628
26632 2777 29706
13192 9041 -737
34400 30848 23053
1858 19369 25625
21130 6767 -1399
21386 4244 24214
4689 31545 17694
36292 26798 -1446
32471 20079 -2775
23619 19610 5727
22461 4915 10056
36867 21812 36010
3427 16810 -2910
28446 17142 -2125
27366 11103 1742
5943 21353 10204
20887 7839 -2420
20886 18812 15873
13526 359 24905
35176 19327 16207
29778 30158 -3433
14165 21135 29192
8844 33305 15224
27361 32726 18604
25217 21219 35152
2810 31698 29150
3356 21040 -2420
35158 314 -2592
6962 16347 -3329
6605 12195 1616
25836 27231 3382
12899 3695 -484
23533 6715 -3190
35085 24576 4097
22278 20526 -2795
4594 19574 4320
11750 32033 -3346
33411 37043 12632
20631 12156 16452
27667 1227 -667
21874 36098 9642
10909 30679 -653
21489 19968 3385
4827 8856 -458
3068 19941 29492
6766 31876 21923
32209 2120 -1121
27812 22359 3330
11016 33939 -2571
24684 33764 32678
13148 21370 24274
1383 1879 28076
25694 7888 -227
31741 7745 8854
5489 17693 17886
5142 9545 -3391
19186 20355 -2715
12213 25878 -2112
499 18618 -2329
620 10548 -106
27555 29403 31690
10457 25372 -433
7643 33035 2449
10949 2565 849
26922 23947 36286
34905 2379 -2141
17827 24999 8510
1384 705 18556
9914 27792 31484
8044 10432 -375
19951 35768 -3061
34164 5658 -4
5832 7597 -2004
17440 14935 -883
34959 23813 20317
28075 32350 19997
24928 22842 4089
29315 33633 -2111
33474 33607 19004
6902 31536 7666
28660 9243 -390
12209 12500 13821
13942 34360 -2454
6089 20286 -3001
14929 30833 15335
4762 35392 24985
1661 1116 18351
5629 10552 -3005
27398 17225 37045
16028 21058 -550
37101 16312 -2161
24953 37492 37365
5194 10296 8332
28345 34306 23212
10623 14850 -408
30316 13120 -2812
2748 34931 -1168
19731 4211 20112
11942 5098 6951
22361 17346 783
21597 37361 1876
35383 17425 29548
15398 4950 -1288
20521 6708 -2011
33310 31667 -978
14467 18079 15921
34902 15165 -1907
21953 36576 -2441
7046 19965 -1679
2940 34341 -2243
24186 17115 -1857
31914 14504 33361
33607 22700 -1774
822 24701 -1976
35321 29375 10683
18944 9380 -58
35231 8154 8402
5079 10548 -88
35564 7546 13667
20541 34552 -2769
21194 2176 -2545
5448 24085 -1692
3233 32556 -3101
21242 30174 18225
17554 37407 -286
23945 4866 13409
36616 19180 -995
34813 20786 -2059
6949 34023 -3619
7952 7235 35831
34950 22564 8369
25274 12843 -272
978 28097 -189
34436 31221 25118
16067 36147 5559
205 24454 35797
10764 31674 12501
31625 31298 5969
19497 1171 28827
30114 33891 -3022
35338 12494 22977
32778 27358 10714
16617 6867 -2421
18676 19962 -309
12593 25358 -568
9173 29460 8973
6512 17496 -876
32270 22390 20598
31317 15170 13092
33167 10059 -3362
18236 2157 28124
14743 5677 11755
25366 29866 -926
8236 22814 8768
9709 2901 -3120
16392 12992 -1539
28950 29037 17397
24094 24655 -296
25500 37442 8703
29997 23230 -2700
35857 18415 29616
7194 12274 -2347
45 25353 -3324
31731 35238 19314
33607 8334 -808
35215 20711 -3027
16360 86 -437
17963 23133 10602
904 37115 676
18292 5472 -1682
24381 30366 -3672
950 8351 -2627
10018 28867 -182
11814 17696 26732
17064 11043 34144
6300 36633 -2679
26786 10829 -3340
792 29384 -2569
14688 21737 7722
6058 11070 14580
32009 24472 34010
8435 34806 1537
25189 8084 -1974
1671 25647 -2588
28325 6483 23116
4318 26640 22427
12933 36468 24603
33516 22466 -1954
3152 27832 -37
6433 28984 36423
1090 25524 -2310
8169 3070 -2734
28053 4622 3265
34565 22617 -1460
6191 33916 22392
3150 23109 -3282
33364 6833 -2064
6444 30898 23351
25520 9068 -665
35708 2256 -2005
27439 32759 14185
19741 18495 17111
2867 37337 -2382
17529 16161 2787
18679 19903 27369
5374 36486 862
18321 16766 31475
30541 23763 -467
1204 16338 -2811
30010 25835 -2807
34587 8136 2148
12134 3051 -723
5883 10460 -2776
4410 20647 30842
30979 10297 24328
3061 505 -3677
15571 36531 -1793
18539 12646 -2118
27120 35179 -3246
15406 381 -1752
32850 14925 -507
56 478 -2260
25468 27368 -2734
23627 32050 36161
30829 4521 -1483
13968 8342 -2629
7789 1497 -462
20765 27106 -2090
20583 33253 4509
8557 11217 8695
32845 237 13153
10139 12979 25621
35223 16968 -3199
27736 3533 28190
17011 34365 -1352
22024 803 -1313
15573 36394 -3556
10289 3505 28083
7230 24450 13455
7460 1559 -2274
3242 11497 10144
24750 5164 13897
27460 356 707
29187 13642 25109
28237 16880 14666
15350 7263 -619
12390 31907 -2537
33358 15662 -2262
18153 4334 -889
28251 11790 31982
8455 15432 -3382
35332 26746 24386
5751 25691 -3298
7875 9212 9658
17182 17425 8915
8354 7009 25331
28193 15521 11381
6553 3316 35194
29714 18103 -2983
23649 7310 6058
9335 26482 -2082
9466 4672 24526
29448 33855 5576
727 12777 -3348
6212 6904 4488
11996 18067 23506
15780 29928 21292
16463 32211 26118
9841 7664 -2926
8388 28201 -92
11524 35300 19495
17298 22179 23051
1471 29683 28977
35125 10979 -3193
14467 8347 25135
37064 10279 -1512
17720 3762 -604
10980 32590 29078
3134 12288 -576
24712 26219 -2590
31355 17572 28932
17090 35844 -2183
18182 37426 -1106
726 4185 6216
31895 29382 -2016
21092 24656 -1580
15505 1759 -3009
28703 11959 -909
838 18775 34389
27509 36329 -790
30263 19054 23989
6637 1330 20523
21643 36760 33006
24276 4043 -3682
13772 14800 -3036
30155 216 -3121
14424 12407 -3173
24708 2308 3443
37309 10987 3515
11707 25316 -3232
4734 33818 8741
17161 21976 5448
22419 12045 -515
22157 2465 -3395
6482 26271 15905
9943 10858 -1398
30468 11746 -3486
19625 19093 -2181
33386 10607 25246
34383 15160 -2523
1746 2864 4321
8492 15009 21291
35625 25266 23991
20511 16042 -1669
37444 23258 -1753
15683 31479 299
2637 13059 10171
129 24203 -745
1867 37494 5199
3981 2827 -1686
18234 10480 -2843
17085 15480 -1129
20647 7022 -1428
35632 30851 3755
25196 31995 -1296
23893 7508 -1237
31420 19419 1465
32470 25477 24012
20906 10335 19603
33335 14046 -1644
32460 22163 -1901
36008 24958 -1555
33260 26314 -489
2990 15174 -488
9076 34273 29529
33741 25797 5111
5795 4531 -2441
22193 24571 21256
29757 15684 -3613
424 8270 -1370
24988 2521 12541
1875 32510 673
7059 28397 -1423
8545 26084 36899
19586 8783 -3702
16771 26865 -3055
1378 13174 24591
26702 36529 9537
27781 21313 15675
13306 681 -1393
13302 25320 6757
1371 33049 -2311
30699 9585 35471
11366 26481 22304
12871 174 17025
17915 27227 -2971
3029 18096 37451
6403 7528 33660
34160 9569 -2056
11106 9569 7429
16985 12106 -2708
3231 8214 23924
29783 24386 17691
21134 32244 -2244
31308 28000 -2515
31629 26303 30433
21213 18386 -2478
31056 15866 -3278
27765 16865 -3665
18226 6312 8727
27786 25539 15861
6353 12992 26835
33921 17600 -3127
15096 1720 -110
24448 14674 10468
13997 25414 -42
25082 24248 -3682
24078 7427 1054
19252 6494 -2295
36584 36647 12559
16111 2572 -310
13165 26246 8010
9533 2041 -1171
16041 22622 -577
116 37262 -140
29628 29843 -1520
21186 6232 -619
30672 7226 21650
8834 31167 -700
21708 28703 33745
27554 33241 -2812
3026 8175 35247
17783 28500 -3185
7097 20693 25712
20406 20050 10873
18557 21719 31416
23162 35442 31550
34256 2636 17808
24194 25932 32925
10924 37045 -305
31159 5512 19407
15007 22160 -1166
18585 11259 15902
18939 7537 27686
26683 2954 11014
21813 34094 17171
33447 31649 -2617
21972 33594 -1472
32339 19680 -3699
34290 34696 -1779
4958 24758 25266
24105 4418 10877
36655 18493 -2916
26504 13072 10929
12884 4030 27990
26705 24961 -1502
35972 18886 35543
30597 25478 -2645
23387 1137 9896
6340 9962 -1315
34136 3284 25405
212 4226 -2490
21794 21605 20525
34915 26426 -694
15104 31309 -2980
25261 1917 -1532
18682 32094 6979
28361 5252 18926
27542 6376 -1467
321 12001 12218
36869 24136 14150
2549 24938 -1837
12039 6244 -1222
25303 17777 20760
9193 27062 12538
32355 24691 14060
35349 13001 -856
4738 18168 -1374
31865 3410 -1285
22215 6256 2944
21367 12236 2119
17017 16167 -1964
35720 31542 -3154
4234 8002 -891
21359 29690 6627
6839 15020 -292
28585 27082 16634
755 2810 16206
15008 22151 -836
22857 29856 -422
10558 6532 -2803
18207 30427 -2227
36469 8867 -888
23677 22563 36053
12832 23350 9067
33878 12251 18037
28665 16959 29257
18909 242 7357
8572 4681 -763
21586 29534 -1666
16950 7415 -3127
23831 7923 -3694
21910 13306 24931
20544 15736 -817
18297 35797 1888
2552 3719 -943
551 31623 24900
26847 11935 34374
8750 18042 21508
28005 5502 -2742
25445 19850 17710
16020 16657 -3379
169 10004 4456
27916 17701 -1457
36019 10834 -2049
18625 17660 19263
7155 10107 -3497
30772 16802 35042
26286 2091 3315
10276 6716 -711
28567 6276 26261
9089 14686 21364
16340 475 -1689
11438 12744 32947
23268 28619 -515
579 22242 -3292
5339 14176 -3120
27242 31398 19047
1317 14590 17539
26994 23308 15976
21794 25125 2178
18205 9467 22280
27894 16144 21504
28631 10342 31142
21935 25226 26411
37176 28994 15246
18939 14179 701
36536 26929 992
17180 15692 13654
12931 15053 23209
17078 28908 -2977
17211 34464 -1255
11254 8085 5275
11961 28094 -1501
28616 17532 -3016
12043 31080 -1397
15910 6509 12328
14389 34351 22332
14735 7781 180
13600 25721 -2579
813 17746 2306
34162 31302 -185
20531 11004 -3511
9988 25277 16154
3090 28885 -2932
26236 3762 32472
12486 34538 -633
13690 3744 -1137
32724 22574 -2523
33733 32654 -3551
7148 6505 -2566
31692 5368 -1698
20630 7423 -1402
18384 32866 28982
36445 25340 -2602
15771 5196 27442
4817 9208 15437
2258 30193 -2832
9738 16990 -15
11432 9452 -505
28814 16674 19141
28980 16682 -2082
26634 20600 6440
16390 9361 -1555
10714 15326 -1488
7351 24500 -201
7415 23995 -2269
9988 8688 -2031
908 26960 -2273
3039 37239 8004
33598 20427 -713
9459 10843 -3206
6877 8055 -722
16603 21667 -1633
24727 34093 25257
2395 27145 -2182
28008 29259 23470
24869 4139 -1283
20299 35577 -2933
15331 32239 27577
11920 15240 6517
30548 25623 -3388
27497 19453 17664
4440 7091 15821
15585 733 -384
7579 774 -2567
8849 22625 32870
36481 7744 4214
10776 1966 -1433
2143 17307 9233
16005 26760 -560
17143 34591 27256
10403 12134 -307
11724 35873 20522
18890 16364 14947
33123 6099 29007
14739 11813 -2675
12608 6559 -2654
4518 5203 111
12138 23739 -1102
36005 26053 35636
15679 31158 -3106
22822 11054 -1766
24369 16742 -467
32393 35412 1153
8107 26358 -224
22901 8770 30550
5070 34971 -1350
7470 2673 21254
2389 7920 -3309
6292 37432 -2688
23892 14809 -2160
33110 11100 -102
23379 33786 7524
19338 32490 9091
17002 26407 -2464
12655 35212 10754
25543 7135 20335
26917 2076 27198
14683 13365 11078
34385 8664 -932
26780 26262 -2636
934 7438 -939
32616 29463 -1104
3917 29082 25802
14212 12732 16980
3141 1407 -503
21914 5350 23083
36632 32516 8716
24855 23556 -796
3544 8153 32692
18976 25439 3901
11634 37288 -3092
30422 5353 -3481
12092 27897 -2620
589 25975 -1433
3108 19498 28308
2346 27740 7040
24177 21688 -3516
5815 12120 6873
7074 36480 -118
13307 37431 -3220
7887 18645 15821
18018 25344 20671
35073 29956 -1337
20474 27192 -145
1458 33861 -1722
6789 19522 19338
22464 17401 -1082
596 3362 31514
19518 35621 20836
36445 2202 28892
15757 29700 -3676
19590 20191 33993
2936 11428 -315
18771 9168 -3135
13766 18584 -487
29795 33787 33160
35850 25198 14648
25036 31025 2630
22231 9457 -2750
37467 1799 -838
567 3523 32931
10892 24863 11968
7427 14741 28114
23596 30635 13937
21230 20502 -2491
16510 21705 10564
326 25311 30387
33214 13928 -388
23229 4074 32337
32910 34291 20361
24594 27413 -1641
11018 34599 -3403
34330 14127 -1462
23945 26312 -1646
6678 2779 -1013
36006 24755 -2293
28953 6206 -2807
4757 1286 -1628
30664 36456 23165
36449 30283 -129
34233 22347 -1470
25425 13367 -1260
7960 36354 17563
19819 26549 -2430
15614 34211 17632
13581 24958 -2040
31067 11644 6143
14534 33955 -871
13129 19757 29035
14649 17190 -415
8455 26535 -2629
22640 36746 -1831
17318 3591 7563
36024 31532 -2629
7246 28618 13974
3335 3205 -984
20205 16498 -2276
1574 4976 -1336
6343 24362 -3609
27692 22645 -2469
332 2038 6177
24285 36785 -3301
36176 8141 -1255
18719 27812 1444
29287 35396 33165
31661 22408 31806
14311 23782 19467
30772 5350 -589
32459 911 -252
8574 10123 25110
36451 6209 2508
7735 3741 7839
25347 17979 14482
2556 4693 924
237 37478 -3257
36852 24571 29470
21181 14526 -1031
14435 17032 6612
27334 13735 -692
18007 588 22084
18773 4537 25323
9726 21681 1588
6904 26457 -253
14787 31296 28132
23148 24920 -974
28177 21500 32046
30307 37231 -3067
27324 974 -2629
35659 14060 599
9581 16134 -1626
6602 17973 -2799
24141 5674 2168
31579 11525 15084
14146 8235 -160
13556 23271 9328
28891 8411 -2347
36571 25474 33384
21292 11658 28016
32873 15376 36334
27971 6540 12729
37404 9197 16387
17353 25892 19496
5447 6980 -797
23177 12447 30344
16368 10217 2296
12644 19551 -3515
17212 203 27272
33711 32343 12567
7104 36396 5099
17587 18743 -1392
7373 27705 27080
15155 6115 20060
36919 22847 -547
3835 28941 5619
33544 9970 -2937
14153 5450 -759
2816 17573 -3343
30911 8318 27073
6142 26424 10592
18252 4262 -1691
8229 24394 9714
25530 2782 -2687
35662 17637 -1552
17217 14617 27905
10467 435 36282
30610 32477 29518
1965 30970 9896
19476 2254 -2156
16027 5352 -192
11530 7398 10476
32890 18618 -2487
13936 34957 186
15191 15465 30185
10778 2988 -2517
8057 1775 -2825
4409 17452 -2081
129 11883 -1422
15695 25542 -473
27135 7630 -711
13111 4555 6922
15221 12529 34143
24645 31262 12026
9303 34606 7634
17763 21352 13847
22767 16383 28088
11191 6306 -569
1417 16545 26866
23769 32885 31083
29035 28391 -3186
24300 21037 -2358
32818 27849 -2461
30541 28150 -3252
12581 32038 25077
30358 19105 -824
3208 31642 -3419
26971 3549 -3526
30152 368 -2284
23524 8169 17237
16800 12153 31074
22736 19233 -2131
15675 29599 20139
18322 26982 -2018
1590 23369 34608
6888 21162 4052
27776 6 10353
4457 27412 34190
6728 13292 23828
18319 35938 -2689
512 3996 -966
31212 31307 802
17759 21899 -546
20498 22636 -131
30184 10320 -2521
37457 13523 30596
2494 31705 -2380
4495 25557 27748
8290 10719 -1233
29551 13326 -2825
12328 24189 10970
20741 10199 -2150
19348 18412 -2900
18892 7705 29734
3205 37066 29586
1670 36846 -2559
33360 29813 -330
5945 12990 -3485
2488 11982 -1180
30261 29184 -2509
3278 34720 21459
32955 7577 36889
34788 10034 -1641
3435 20233 -116
25515 22415 6259
35686 22733 822
17506 32343 -2503
7257 21251 2881
9409 11123 11040
10329 34939 -1502
24405 23261 3221
18933 11721 -3335
21624 3818 26779
12107 3654 30658
35002 35149 2477
25214 7755 26950
17880 30612 7579
17778 19029 32565
31057 16702 2487
17612 4734 -2393
6367 5558 -1991
8034 21316 -1528
16397 5955 -819
22095 19452 25992
19131 20936 28367
27926 7605 2389
14998 23748 -1706
14887 11588 5190
9199 786 36815
18848 6691 -3653
29981 16667 -266
29163 25108 26897
24538 16883 -834
5537 8251 8223
10045 16065 -3080
17371 9967 -3316
15512 30454 -1926
17036 15680 27944
2361 122 31978
34119 26412 -3280
18360 34495 -2777
3525 3412 -2086
14090 16984 24933
34942 1496 -1135
32948 3501 36147
15125 11468 19197
10238 33951 4609
7113 32852 19548
26598 23838 -1309
7472 18074 -2047
1973 3303 17774
16235 29244 14999
35565 30859 32833
9960 13607 -1488
1875 20251 -3097
7121 13900 20797
9850 5122 -1612
13862 11456 -3223
10695 32108 35192
7636 33307 16041
14617 13461 -3269
6644 36696 12250
18180 21890 15973
24667 25510 27941
28619 5779 33919
35553 13132 17491
17103 24324 33926
11908 27365 13957
29872 31585 -1847
32586 16268 -1213
5288 22354 -2721
36259 16223 -1135
32932 13902 -2374
14474 20118 22975
35466 6755 15525
17885 12929 23479
32971 32440 29852
5166 19471 -2598
36340 7214 7202
10677 26124 -3620
3673 11867 -1198
28691 30980 16653
34028 5208 -3330
22178 11496 10018
10466 28029 4410
25703 18219 11026
17234 2657 -1185
8440 23182 15921
13583 18799 28193
5162 28781 2024
31325 16143 -1692
22100 24496 -2205
31041 30992 6625
6077 16851 7732
9009 7534 -2741
30216 27993 -969
1042 2216 -1171
5142 17951 19813
27221 13196 -2883
1165 18790 35834
20374 6657 14574
30451 18429 20011
14925 29108 32824
4615 23931 -1963
5309 7242 4015
23372 18859 35427
36567 23016 -152
11700 15241 29892
33639 26011 -3395
19278 15175 26638
30832 8083 14186
144 26075 4423
37371 10192 -857
24483 27343 -3718
27488 15525 -3336
10419 23021 5120
6747 7551 -2247
1402 4336 -1258
34017 209 35249
33736 35986 1135
5962 2549 27474
7747 17156 10947
16610 34254 3091
28532 33415 9089
10505 14038 -193
8896 8360 11624
29377 3742 34999
19095 29574 26170
20398 34554 28094
14977 4928 -1652
8003 4306 -470
16658 17215 878
12322 11765 17546
16690 1816 7217
1416 11239 -1188
29523 22957 -1125
27599 36379 -608
12930 34824 27278
15873 32853 -927
17479 32823 -2238
4760 1735 28755
33924 2753 -2525
8966 20324 -263
1174 9371 20372
28592 26035 18179
19168 19556 1333
25734 32453 -2909
17322 1847 30521
12177 22492 27219
18485 33743 -1096
12547 923 32412
2095 24545 8358
8536 19244 19806
28131 6891 7890
16956 13256 -2058
4802 26555 29
21877 30289 21144
8145 29971 5286
32156 34503 -797
29789 19724 33540
18649 32131 31261
10537 1440 -1816
20662 1084 3449
16518 33448 -354
16220 34927 -2309
956 15539 -3120
17097 10973 1014
8330 35589 -2698
37318 2040 -1465
17663 28050 -969
18109 2432 -1798
31516 25694 36618
21289 23257 -1885
14508 21478 14834
29776 30225 -1726
14308 22916 -1690
23923 21030 -2757
26221 32127 -2882
30517 36575 9327
1233 27504 32096
963 21230 -1828
30139 5848 4778
8739 26106 27069
4140 15236 33465
31499 7046 -2994
34988 35151 24422
7858 25705 28289
6817 23794 17748
22595 30174 19502
30221 31197 -3221
4402 929 -2263
13303 21466 -1853
25737 35025 -2438
29029 19078 29586
3882 20106 5960
34548 32439 12993
36857 1498 -2705
2941 7292 -2239
31165 29165 -3336
6363 15282 -1769
19814 22190 16355
35559 12148 -160
28170 11449 -542
2099 35370 15421
15517 27776 -1377
22052 9234 13830
18449 36328 -1258
30555 19856 6961
34473 34659 13163
32500 25990 -1048
12614 32853 -1022
15944 4419 30485
21441 29327 8653
29157 24732 -3712
20172 24912 -192
14875 10544 -137
8618 8699 -2201
16308 21756 30765
33568 7227 21978
26160 9924 -2071
2573 22870 26366
24576 12135 -2475
26056 14017 28682
25697 237 27422
876 27501 12746
12872 7179 10546
36935 11693 18526
20676 15361 -189
10742 16372 32701
1177 35268 -464
3739 8991 -77
21928 16759 -356
129 25288 -2824
7295 27244 -2985
11336 2412 -1584
14098 33251 18399
17546 16623 14151
10172 25944 -1823
22486 34367 30556
27706 9881 -2098
7694 2065 -2509
1503 36428 -1176
25736 7531 15248
5799 10296 31926
32736 7894 31112
27644 28893 31948
6866 22611 1629
1748 17392 34563
24984 11295 24274
33049 28619 22161
5329 4026 29847
31092 14826 -415
550 3858 19424
35940 18939 -3588
32739 1925 32027
4201 14095 -2739
28248 27933 -224
15223 579 -2733
22999 1249 -2964
33265 34333 34302
22408 14634 -1270
16430 34169 -813
9328 25088 -2344
31190 22232 7949
5181 2713 37136
24311 5425 31980
25916 32849 -3181
20571 3874 10896
16329 23260 15952
35220 13066 18764
5001 22811 -3324
30360 36285 25810
22260 27378 -850
29630 11896 27202
27681 15913 -3410
16647 33104 11679
6637 6047 -685
18354 27119 23021
920 29698 25014
33417 6896 29522
20409 20821 32357
8756 22171 -2541
21669 34170 7117
28283 11559 -3628
29149 8536 -398
8538 9790 -1688
37026 13953 -1679
10778 16727 -1902
8773 33160 -1725
37491 14064 32362
13435 8531 -3491
33642 2012 -290
4566 25165 18198
1337 6979 4770
23336 16631 2484
13582 19087 682
4124 7373 -972
11059 36827 29347
12237 460 -248
4455 13792 -1096
1621 34736 7317
20596 19884 12965
28852 11305 505
27282 25488 33725
21709 11440 10620
2943 4645 -131
32555 14286 -2135
14594 31832 4767
36625 14360 -1544
17152 1566 1080
16424 3897 -1246
27341 32769 -1910
10163 5907 -3463
28934 34993 22702
8473 34904 28500
12827 28176 -3598
16696 22512 36407
5603 21762 24583
9673 7958 -751
13029 20041 -2955
27251 7811 -3051
3840 2545 -2728
31192 13802 19233
30985 30154 -3307
27498 25908 33720
22547 34731 8850
24912 32148 -2377
21261 25971 -897
15952 7267 2924
21982 11285 4525
5408 1096 35105
3576 32777 -838
3178 14530 -2140
29607 33848 28144
24129 32518 15625
9949 28171 3881
30055 30080 4273
14842 11759 -683
14049 19111 -2497
5864 28973 3347
34579 35327 13940
14167 16074 -849
34389 13720 34916
1936 14581 -2356
5204 6944 -690
6606 28237 -2373
19814 33803 26289
29850 21384 -1468
14689 21441 10825
24314 13811 -476
15840 4194 35653
16535 13037 11209
18405 10576 -1189
1123 35485 -3026
20629 11194 13857
23610 8866 -2701
20969 19341 21821
4202 16240 979
12061 28443 -1315
30949 353 -3369
34219 5268 -1994
11577 7157 -3152
2880 23109 31554
28993 5864 23423
16840 35025 -381
12691 10599 -1686
18010 18408 -1302
12178 30388 21769
33404 21299 -438
24232 10560 15620
25176 20023 -2814
10907 30783 14998
21017 30870 4418
23753 17316 15996
28802 19327 -444
13725 13152 37465
24507 10058 -2297
5330 12201 2178
3190 19053 35074
11046 3525 7803
2897 20333 -1033
26281 4703 25412
3117 24758 -1263
26350 3803 -2502
9276 9025 25724
63 18794 -1365
2064 28415 -2905
5958 30411 10143
9863 14862 -776
15353 16594 -1262
17865 1129 23605
16571 5884 -3345
9126 1219 36229
22316 8147 -1638
11536 1303 7312
1465 8109 -911
33726 28211 -2825
26687 8549 -540
19256 20800 -1527
19894 23638 24160
15067 13153 -1347
4938 13071 4317
29023 36160 -1016
37113 20179 20148
30946 10575 28705
25370 6009 -1388
390 12507 -2785
15252 16227 8186
9048 758 30048
30871 20069 -407
20933 7243 8508
25453 5109 7971
20047 35721 21328
37084 32610 14400
1030 13003 22327
4461 32376 -2163
30378 15644 30762
10922 22934 28743
32551 8369 -2577
30066 3453 14774
19698 1034 26078
10530 17036 -2726
36087 33771 -249
13315 2647 25804
28998 33669 -2954
5051 32710 1277
36257 31550 31272
19652 18337 -2128
36562 24626 10180
11342 15991 25599
30121 33704 -1375
374 33072 -2352
3879 1888 -1748
12206 34722 -2827
37163 31006 -1372
8556 7913 18378
7645 23741 28420
11603 36710 2791
4310 33609 27676
10791 8291 -181
29803 13605 -1324
106 9199 20694
35629 21340 -2041
15972 34486 18245
30845 10606 1594
26019 27182 33305
30703 11660 -1355
13275 36987 -2307
15388 22340 24175
8283 2785 -3531
7520 14673 -2629
28711 34150 -147
9132 29028 15013
32809 19926 7264
6866 7933 5923
15244 16463 -2875
4107 24792 4004
17487 8142 -520
17452 5508 27148
26890 4408 10108
33365 28460 -3155
13810 30766 -1294
34468 20162 -761
32910 12541 -3069
16003 20408 3252
34377 25040 13589
31001 4636 27493
5530 22231 30493
23364 644 -835
4680 21329 20290
3191 357 -962
24210 17090 1248
629 12376 9351
3710 30621 36592
26384 20315 19631
23718 13936 16370
598 9450 20156
8810 21053 9871
31050 10542 36191
3040 32750 -2762
18554 654 33743
32737 15538 -232
30038 37212 26605
12902 34446 -1259
34732 27391 -1407
13102 3734 -2691
253 5823 -10
6082 27563 2418
9672 7630 35511
91 430 -2998
25613 10189 8475
30858 37070 -630
31156 24100 10152
29151 16112 17861
29127 7915 -763
12265 32502 -1742
2142 15198 22439
21483 4784 -3472
27169 21500 36443
27305 24940 31138
35874 19873 36992
23040 19926 -1204
23650 20448 -3221
9046 31214 15638
26752 2152 34911
27181 17044 -3453
3924 6772 35394
5584 17761 -2804
29949 17945 -692
27352 20991 -2067
17454 2382 -753
36188 20480 20297
25 18955 -37
26875 385 -1599
15893 32205 30564
19051 33110 -184
16962 16622 21492
3380 30548 31301
19170 26333 -1318
26689 10736 8674
15374 26697 -2524
5214 18657 17100
19631 14249 -3487
23171 27 33921
30879 6801 -1507
6425 12141 -1270
13239 6645 26657
35611 33941 732
3150 32611 34158
5351 23570 33114
27751 33127 -1430
13377 19430 29751
26893 19852 -821
37295 9048 -1249
1695 34633 -3550
23070 25943 -658
1468 28124 6878
28327 36157 -2229
37379 35616 32788
16498 10646 -24
10679 9913 15985
34911 22619 6736
3948 17268 -2108
28099 28212 6531
8810 20680 10809
25607 33383 27734
10572 2226 -1433
25250 19426 24651
31460 10292 13859
8750 29583 -2951
24942 24803 -3749
15195 4845 -1833
6002 30677 -1259
22952 14459 3599
23939 14076 -402
26085 14489 20305
35632 34836 17574
24747 13535 -2162
25298 31356 -285
24517 10380 -718
21070 35665 -559
36948 20151 5104
24712 8773 34639
17350 27236 23673
35669 8874 -2389
36314 32403 911
24856 2549 -2959
21928 37463 22
34406 31650 -3081
14646 31296 -7
7572 18161 -2550
18176 33077 -1343
10533 35931 -1858
22195 5746 18646
10537 23875 -3124
21452 6172 18427
21710 8515 -1051
19351 8051 22942
19920 35772 17171
31934 25698 -2028
20558 31276 -195
8507 30106 24732
3134 26273 18457
32994 22119 -2511
15069 6823 -3219
24832 28986 -3523
1352 32633 -2010
18699 31992 7295
2996 30426 -2330
6513 557 -1797
13480 28311 3565
22120 5457 28892
15592 20312 9981
32084 15220 20579
14697 30657 7561
33444 21404 31057
34967 11469 26544
12937 9502 17187
37319 25606 25062
25157 4037 -2711
22949 26302 33554
10321 28540 31708
29632 2758 -242
31701 26331 -976
35932 17181 -1332
1737 8560 20769
14470 29501 -1321
13899 5258 19048
35073 24366 -2556
2129 19185 -1671
30167 22009 -2180
12220 30775 -1670
5125 30687 5984
18020 25674 4756
9948 14817 -164
29739 27469 -535
35860 14893 13245
33587 17743 -1598
34543 30521 6563
32567 17494 6499
13349 10380 33489
11681 37495 -3361
37186 29611 703
10925 1954 -2247
13753 28584 -2716
21885 5523 27042
36259 3502 13536
25966 11037 -2551
8581 32375 2242
36011 36168 26405
28363 3275 21671
18323 25602 20512
29123 5862 23069
32120 35943 -1329
4324 21948 -3200
16568 16074 17747
36452 6344 16773
18795 28759 -812
14587 32211 20462
26208 9290 1994
20818 22545 -655
14197 3893 7887
3249 14366 -534
30692 29030 3774
76 11155 20985
35260 4651 11301
24960 6438 13521
34178 31155 -3373
36431 28854 -499
35803 9599 9622
31767 13399 -410
10368 33776 -3009
9335 21281 -1129
16991 25735 12351
33817 28544 -2023
20764 24971 23227
8236 18273 19146
27487 27805 -1395
19108 25660 -2137
30178 36160 9752
522 26808 6800
29872 13940 -229
5702 23047 3407
4498 12459 -1723
21797 3078 3013
18373 13110 6167
12226 13853 1028
1856 3668 34238
253 35829 1704
30973 473 13085
22730 23109 13617
22923 32981 -967
9939 29618 -1051
6954 2889 24528
10392 15243 -422
25915 10900 23141
14656 24892 -2097
21980 11274 16187
27767 15071 36813
3401 7913 -1566
9639 14032 3042
14969 13221 -2375
1251 27293 2677
18646 17274 4743
36825 21791 -181
26563 4364 -1355
21187 18736 -771
32329 27914 962
33018 22398 16855
15209 29 -2735
8120 23663 35056
20675 22717 1909
28037 11475 3085
26244 29487 29400
36258 22549 5601
24818 12294 -2975
6673 26963 30291
7364 32229 35977
21922 1602 18463
35035 44 -758
17519 26338 -3057
28587 21794 -2963
14527 25499 34414
9117 31142 -596
18705 16353 -1071
34613 17165 26598
29888 23820 15124
25246 4527 -2356
37066 5466 -2607
14886 23857 29868
14692 14811 -450
11898 18085 17992
22648 13237 -1674
6646 30924 -1085
5145 22647 19526
31987 33720 -1365
28952 3803 29290
3766 2382 -1570
22090 10334 -3616
14754 2183 -427
866 18316 1340
37146 29138 18205
476 14529 -2967
13150 11108 -745
6482 13149 -97
15342 16484 21470
27331 28380 26151
23624 19924 -3502
15779 20171 -2649
22783 3210 -1618
33738 36859 -3295
5139 37495 12622
4767 31873 -3490
37042 19798 -1905
2898 3611 5395
23479 10453 -3705
29824 36230 2901
3340 7097 3571
27117 6582 15656
14782 34081 35675
22878 2333 36742
17326 33011 -1969
5542 18881 -2384
12080 13774 33663
34444 18374 -2028
9428 20174 -1354
26781 10511 -1856
37462 5663 23442
31349 12858 19406
9691 35271 13243
26696 14544 -1497
16608 13982 22289
24332 12288 -603
37002 5396 31705
33315 31609 -1825
21216 23287 -3301
5236 30115 -2716
26744 13726 15169
15433 27865 -2412
22770 17299 -1304
31500 31661 -1831
17216 32363 1432
33428 33965 36778
22253 23840 32897
25888 13701 33646
24701 28200 -1580
6031 13104 -3435
8675 36641 -1020
11442 29308 -2825
5771 12936 23812
22512 11828 24155
31229 25693 -1437
32773 23554 -3628
13892 9931 36807
25446 15464 -1030
2745 13447 17158
17976 34276 31103
25127 19881 4935
14536 23699 -1718
20883 18479 5062
8501 3031 -3120
35823 15842 -3157
18862 37445 -3711
6065 32676 -734
230 19864 33724
33121 9419 27947
21157 21866 32384
18951 1910 25622
14246 26963 -3443
22274 32573 -1368
35124 30166 25362
5266 35365 -1502
13571 1448 -2209
26998 28325 -919
20621 6021 16710
34175 21687 2243
16798 875 -2106
24917 25526 13113
31009 25472 17914
34138 6164 -2507
16586 24777 36379
29228 3927 36707
7951 36377 -2214
27162 25696 23687
965 13023 -3126
22024 6974 13276
9912 11420 1417
28361 1729 13906
29997 28890 23779
2021 22600 1522
28304 20706 -2019
150 16373 -2422
24720 31965 22477
29885 25135 -2237
16570 34855 24694
36984 32064 23384
36299 27779 110
31398 5174 28398
8802 17195 -3409
23513 10664 904
32573 25964 10523
25651 33397 -2239
29884 18632 27378
23805 7069 8075
1202 602 -3192
17153 24082 -2884
18888 21668 36797
24382 30854 30489
22238 12781 6599
8308 19445 -3262
20230 30827 -1563
27 35674 30546
21552 2026 21555
34251 17734 -3078
34772 25101 23431
13461 25104 22925
355 6472 -981
32160 32956 9700
15841 18134 -2034
3983 1604 26568
6005 16194 -2487
2695 18351 33107
18388 7413 4463
6614 33321 20113
35331 36606 31735
16557 26838 -733
34710 13977 5658
26143 37348 -858
34371 5042 -934
27907 30684 4216
22928 31957 22818
36027 20291 -306
18937 7721 13381
8742 13491 23381
10666 22064 -2120
69 32685 33917
16073 8348 33617
21831 20669 -2025
26176 28276 -2822
6139 27303 28629
2980 14808 -591
18606 16709 -179
26618 19289 14501
1723 22427 -3723
22412 18432 35994
6702 8153 33157
34019 18646 13090
27765 25864 37173
9650 32059 -193
8777 8337 -1370
1450 11884 37493
29343 29925 -3127
1532 26294 15053
24952 24554 18553
15421 24317 3038
11022 5611 -337
8214 31516 11895
16598 1921 21481
25946 12101 -3402
7835 17850 20262
6955 32679 26507
22122 4290 -223
22809 14772 30733
5599 8805 -2286
2432 26017 11892
4179 29519 -2765
35451 21431 30791
12549 13958 -390
33417 12863 -3164
30569 36265 -1898
29652 2103 33179
9038 482 22893
14066 9547 -1373
9923 12932 -3405
29591 21500 28698
10652 6502 700
14880 12463 -3119
30974 15810 -3634
1840 19578 21500
15640 14930 4607
21870 6503 -1882
32791 14018 -54
224 418 -267
36390 23694 -8
35049 26243 24896
8625 12616 -1480
16496 36183 9334
12614 8897 34633
8848 20892 -3102
33284 32589 -2713
35375 30789 -3380
26713 30639 35319
23180 22697 -1112
7541 13232 -2306
9649 23246 -953
1162 25633 37340
24591 7330 -2374
15773 32532 12500
37048 21471 -1123
8712 31722 20654
10202 20632 35381
22112 13296 28584
30428 13941 15455
10722 22443 -3544
21801 451 21978
14701 206 -3408
14787 6304 25942
1254 7667 4142
21927 19618 30029
17097 18762 -3349
12362 20004 -501
15688 22504 -2977
5271 24508 -784
19959 22381 -883
28760 15470 23181
26516 21673 -3139
15440 33227 14436
23766 29439 -1964
3116 30399 -3511
36764 30665 -586
11891 6805 37014
30074 11303 -318
17334 13883 -2115
4662 16663 -2229
28946 18901 -636
8748 36290 -1695
34697 7761 -3649
34521 24767 -1052
37399 21196 30555
35666 21079 27028
34400 25048 34846
32528 31206 31947
5759 26601 -3592
26235 30375 -162
6580 83 -2465
2629 30277 31456
6657 6751 -295
4711 4553 3401
13098 12567 21522
11682 13946 16547
1427 32381 628
34470 12257 -1474
13343 14676 -1873
34046 20432 8816
17672 25087 -153
12064 840 9228
22879 26448 -1660
13838 26855 18247
8476 24313 17566
34587 21116 1318
7930 8794 36895
9655 25347 -2307
3071 8861 23704
7672 5897 -1764
14095 13922 -1529
30667 8964 35671
20972 25901 27020
21813 23543 20454
11816 33069 -710
19334 15592 -3233
26342 22870 9982
3962 5770 20915
33168 27344 -2577
27076 21580 34146
27641 26991 -1417
7124 35237 16031
25554 34327 -435
34191 4508 21249
12754 19522 -263
16551 7631 -399
416 9353 -3094
10239 15719 -2703
2505 13121 5352
21416 10917 -2300
34191 21320 -494
1036 33538 -2677
20647 8976 -3295
19069 13482 -1280
2797 7915 10421
26888 22027 -461
25678 5873 -1225
1506 12582 -3038
33885 21992 23461
3825 11906 27143
5366 18923 26042
20735 11596 -793
34933 13027 15159
15387 32187 -3217
11601 25479 19243
24324 6808 -1852
18210 14043 -2570
9046 16137 -2948
22015 14559 -3277
23558 32935 36290
18579 10048 -3397
37126 26156 34846
33884 17748 -2950
25 12110 8004
15553 10415 5308
11094 16493 -1138
21229 1034 -3277
22572 12344 -3478
33388 31837 -3714
7396 2937 36770
13774 12783 21825
7579 19928 36345
5440 29941 -3478
21423 27323 -1289
8873 2158 3970
5032 13377 11973
31995 29188 28096
10639 28483 -2463
28033 26186 -1242
33804 15529 -2728
3144 15200 22618
11864 22736 -754
28010 23420 894
12977 15277 -878
26908 59 -3212
11970 10036 9704
31458 8132 -1125
9966 14509 27353
5739 12761 -297
7811 3232 30301
33889 10800 35481
18769 23251 -3211
16276 20702 36916
28432 12824 -860
26934 22100 21116
26389 34881 3262
20037 3017 18529
2301 8406 10435
16017 1716 -1303
21554 22967 -2047
30475 25315 22081
5925 29010 -1396
17335 23100 -1791
21921 7382 -53
54 13430 -2590
36122 642 -3632
23142 30681 26645
17667 16385 -495
35271 26547 24823
35264 1299 -95
12014 23458 -2523
17214 35220 27234
8691 2277 1479
4150 6335 558
32267 2155 -2958
26241 14886 30115
11374 25576 24021
12600 2923 26917
2079 32448 15344
1378 265 -777
27952 20740 1042
24346 33578 -2161
20240 9612 -1626
17001 21473 23896
9338 30854 23140
23348 442 -3481
36926 2462 29201
21251 14436 -1000
24697 4716 27430
10861 6966 -2780
27801 30107 -1858
26670 34486 26280
33990 28959 11260
32995 22790 -2947
8892 11493 -622
12769 23730 11903
35477 11416 14823
12936 23188 8514
15859 15636 -1501
18020 30372 -3704
36057 28610 19684
12887 5277 -962
9712 31538 36807
35215 9712 -1193
26201 15506 -1104
6249 4419 24863
17291 23584 -61
20347 5536 -1623
20316 10666 31370
4016 259 -3305
18957 5505 -1144
16779 34847 -3610
25510 18991 -2348
20725 36476 8455
104 14715 -1892
14677 32969 22144
4321 778 21754
36193 25367 22531
22136 26696 13483
16632 27001 -1578
13545 9369 8987
22826 1826 20258
13916 15218 -1226
6841 33800 -1150
1998 27623 -3503
37022 16871 -1439
8017 29577 -809
28233 19071 -1423
19123 18238 23431
11277 35760 35035
30733 35236 17091
11777 26909 22023
21345 6372 22183
35363 23439 -1014
2865 15252 -1930
13622 12661 36179
10270 9068 -912
32268 14794 6677
6147 8185 12743
1191 11332 -317
16942 31950 -2404
32074 26741 -2796
9895 11292 -2281
11303 34400 -3475
1432 5740 23160
30291 2993 -2490
64 11278 -532
9228 19672 -2039
30173 30134 32418
19007 17857 -423
3679 15691 -1394
18279 17425 -2221
6065 16940 -2588
32136 6201 20872
23022 12341 24453
24484 20196 -1999
29577 11488 8772
3973 14645 22668
15571 23286 -3566
6013 31164 -2699
9077 23538 -1043
30109 36478 -1666
18854 29740 -715
17691 18518 7002
21631 1951 -1212
16272 21105 31557
18613 21916 9005
24106 22456 -2798
35623 9366 -3588
23739 33203 -2617
26937 4606 21210
32677 16787 29679
9079 23554 12902
29333 20074 -3020
16707 20109 1118
30495 913 -2865
4727 16663 -140
34161 32148 18630
11244 9985 -1112
26127 10027 4236
6560 23853 15071
1895 28030 -2605
29041 9242 33251
7499 20088 -1665
11883 35805 15507
17559 26351 -2798
20181 33747 885
10352 23438 -1925
10202 1414 8390
30716 29305 -3555
14075 5147 -329
33687 3655 11610
33682 8120 -579
27564 32708 -3706
33927 22916 6034
18574 22262 -3568
31298 26217 -2722
30651 8625 -1197
1635 2085 -3164
13118 37173 36516
18893 8872 12951
18627 11237 -2718
16988 5267 -1031
12277 15815 -1633
30640 20934 15538
14965 27378 -1671
22578 15861 -2367
21794 26302 12215
6099 19108 14183
35563 15746 -3177
13687 4686 21684
13413 10150 35352
18706 25906 -2673
1948 6272 -223
12730 1934 31239
3506 26736 37371
18473 36032 3303
34522 2638 9663
27381 33214 -233
10155 22416 31839
16409 28321 34073
10739 25707 2128
5652 21048 -1365
31826 1655 2765
33188 11517 -302
36975 5722 12453
20446 7975 -2002
2694 32268 1038
3099 34263 -3127
29946 33044 17955
8253 7150 -1206
18911 14257 3841
11451 20489 -2148
9830 33194 22637
33384 37084 11372
16200 5754 -928
33279 28466 29995
900 26062 12650
26107 5329 -2838
16182 22607 -621
25037 27387 -1297
34600 22173 7737
65 21625 -1025
2520 15957 -3548
12109 15336 8537
8282 32720 -777
34427 158 -2741
32267 2525 -3481
11648 23473 22246
30911 18786 -3278
35085 35175 569
32888 25864 27118
31533 25570 -2340
35242 13128 -3499
27600 20772 8841
20299 20746 -2659
8630 204 -510
14886 33161 27840
24668 17085 -777
7431 33602 26474
19165 36403 814
8754 19091 10729
8246 11108 -2568
2289 3918 -2494
18001 4232 21222
37137 28517 -3513
12814 766 19054
28442 30977 20958
30110 7304 -1898
29629 23562 19391
8017 19095 -935
30932 20739 -2473
11900 19448 -1150
37025 26207 2764
17698 28735 -1409
8200 22714 32334
892 10643 -3434
28158 20912 37347
4433 20288 33742
33499 26106 23538
27364 15421 -569
34414 10891 -3620
14224 29958 -1472
19402 23713 -2351
31724 30976 6574
12158 1351 -2593
4843 19973 -337
11720 7800 30161
2227 21694 -3430
33581 35880 16486
13448 23536 36285
14507 26689 23150
20564 13020 -2126
31831 6782 -1271
18125 21285 24950
6628 3310 -2006
2749 10569 -2600
20951 5189 -2849
2441 25576 30047
18298 14253 -807
17458 4253 10937
29145 33287 9515
10041 21524 -2738
6749 24161 -276
31036 34897 -3709
18385 21256 35381
15899 14731 -3563
30851 21786 -1300
10360 24269 -128
4330 15155 14029
8932 8853 -833
33971 10820 622
24123 20472 -8
15920 36014 19487
2270 23319 -2720
34299 31302 19548
25173 4501 -1900
29208 2966 33414
27884 9787 -2208
7148 23309 11035
2560 33734 1563
33546 33771 14759
11700 23113 2786
20686 10632 18574
470 18657 6089
25729 23454 3777
11524 33602 13367
614 34539 -675
34005 24079 34499
37076 20341 7746
19425 19880 -2733
23643 33744 -491
5299 5934 36377
13174 6361 4713
26511 31892 18208
25665 16580 25774
727 28171 33810
7989 18976 11115
20206 18674 22050
15075 29343 -2864
7152 25968 20728
23238 29752 -1422
4424 14302 33922
14641 20729 18512
13721 4284 1704
24799 12600 -3675
3232 23998 -241
23919 31163 12638
27428 21174 33673
1370 20021 8506
33172 21646 -854
9439 3432 -166
31362 20920 -460
22456 21287 32250
11035 17043 30972
7105 37340 -2681
23431 27150 25691
30656 36812 -2805
20827 21984 8486
17806 21700 -2276
25633 22010 2051
16374 25669 -732
20565 19744 -2963
37013 242 34745
1443 3908 18865
36970 31287 28563
17214 30230 5182
11212 23140 -3392
28870 24177 3579
1765 19873 -1100
33213 12630 -3209
15740 11486 -2298
9329 6184 -1832
16674 2172 -299
36998 21493 -1236
25712 18391 -3720
31778 34642 -189
24952 16614 -39
15323 22278 25606
3446 24574 -2060
19373 28451 -799
25051 27630 -92
16203 14289 -1751
33573 2382 3996
29946 25508 -1185
8790 36671 23457
9882 14206 -1250
31635 28808 -3041
6383 31194 15775
11801 2572 14440
24193 29790 -2574
25849 14205 -1852
7049 8094 -2960
1102 5930 -3517
338 30588 7112
3284 20122 -2457
25079 30015 -303
7867 31923 8036
1144 21150 14784
1431 3422 -3263
29893 7288 28565
17812 15006 15232
7032 20905 12052
34904 15765 34824
24535 34390 -1175
13015 6801 13283
35659 30885 -1256
22912 7762 24920
10932 30124 -3430
18848 10087 -1161
2783 23624 -3015
23383 2773 17128
28894 22989 -530
30864 11955 23554
24442 19170 21340
3196 6561 -436
13304 14665 4167
6045 15114 -2966
25638 25465 8667
24892 35525 -3390
33474 18115 9133
34270 23565 -694
26489 6009 -1842
28438 1370 -1998
20369 3824 33991
30465 32832 -2117
15483 31794 -1024
16191 30061 19167
3577 36196 -965
6390 3823 -3385
36898 7409 3587
25168 30182 -613
27461 34031 -707
8277 10635 -3578
23981 2764 3968
5812 12957 -3742
24022 36308 32246
31857 6240 10454
35312 20553 -2777
10867 31388 12637
23267 37304 221
5014 22641 -3654
9934 8638 12843
17949 12985 -2941
21045 17760 16073
18859 17920 -2120
2085 5973 34622
33805 18265 32741
3829 22492 37480
18628 14409 -2229
5659 37430 -2197
11321 1518 -2735
36686 27909 12924
11275 15899 9752
23858 9916 4660
22056 5447 -1894
23373 13196 -1053
35981 24134 -3273
14649 4360 -3336
17656 23763 15347
36800 29320 8151
23337 10974 25980
23683 18087 23764
15320 3906 -2547
35525 4344 37443
21703 22231 19030
24588 7133 23285
5699 32645 29641
608 14893 -983
4337 118 -2376
564 22264 22162
32327 20752 719
14718 33048 11362
27857 33483 22083
580 28581 -3488
399 34701 5826
10990 33474 35666
23622 32685 -2275
34589 16498 -918
17608 4171 10172
31570 787 -3139
6153 34969 -249
26587 1138 -969
13879 21991 31490
6028 15318 16272
16593 18645 -672
4111 30909 20379
9772 12125 4297
16160 15255 -2007
33999 7590 -559
34735 21710 -3184
16594 13889 20162
18422 14210 28759
22255 26856 16266
35138 1400 21920
7309 24646 -1737
16821 21938 7874
9179 25806 2246
6572 36339 -1907
8664 9655 -586
9825 23499 -1164
22388 21973 34732
14238 19349 13143
17441 342 14076
22131 3757 17692
6115 29302 10124
27262 3173 -707
27252 27717 23542
24607 27780 21890
19696 14669 31892
32770 19766 -1020
16179 25070 11893
22906 14627 17801
10898 29254 8893
24766 20518 -2787
2027 21276 10120
10108 21752 -1735
191 24490 -1164
10991 16578 35120
20447 14006 -1912
1437 28842 -135
4050 14426 30870
16163 20794 3669
32766 3386 35812
35117 3073 17201
14067 31494 28663
33354 14488 25283
1182 21500 -1844
682 111 3477
17403 11456 -2174
5685 31639 -2840
18264 31550 -804
16321 37315 9442
4479 22427 -3027
13386 27714 -2744
22176 4130 -784
20248 15537 25875
24474 17128 -1915
23369 16549 746
9560 32473 -3240
22100 20757 -3749
26718 33848 19169
30407 15779 -1673
35311 26103 -3342
33195 20758 1083
4116 10437 26553
32459 26304 28975
20543 36708 23802
2093 19707 -144
19433 32887 9542
23151 34591 -2833
30268 4114 29288
25292 13108 -1457
13133 2363 -1634
35882 25319 32036
32346 6722 11684
13172 18204 7845
19880 32079 20898
15523 35650 21802
36256 22829 14733
11424 3976 10912
7605 10275 -1815
30385 12687 -1231
31746 26501 -17
20722 9109 -2960
29399 35479 -237
11130 20364 29218
24055 4429 7097
14306 26781 23449
2302 31163 20330
34517 22429 32915
20699 30721 20618
4440 16111 -126
8056 21354 -1716
35083 3593 27424
32604 6197 7195
6542 19580 17122
11418 33208 -3295
17585 8995 -622
2391 13413 32267
12779 23269 35322
30541 27948 -2213
21186 1759 9066
21978 31190 -179
27329 25340 -49
30735 31257 14274
233 35379 3710
28589 26378 -1512
21771 7403 226
33336 19323 36599
37498 16031 12078
10775 2523 -2001
30736 18661 -528
8165 2129 8292
3072 32680 -3290
36196 15600 -1469
4507 21539 18044
28820 26882 13008
6370 6695 19509
28748 17287 -3256
8461 24433 24152
23133 17095 -852
1543 8406 -1070
33986 31889 -2627
8448 22686 7455
28715 11376 32060
3391 6362 -1926
8421 23916 10596
18521 21229 17107
35820 12822 -2483
25997 30340 13359
27774 11022 4338
25457 840 -1243
25559 23626 -321
17118 10220 22705
29477 8293 11994
16593 26454 -3680
22353 25508 -2821
17812 17582 11958
10244 2328 -3704
9341 17867 -399
4482 3697 1921
17442 36244 6186
22170 10505 -1301
36240 11505 36193
6448 2040 -762
2374 6133 11104
2107 17862 7376
3910 29169 -82
3638 22661 36752
5396 7010 -1134
11361 3608 7046
23159 7674 -531
21461 28615 -840
3750 24806 -3049
28909 16854 -543
29526 12381 -2953
27944 36879 -2648
4787 35579 21571
23911 19695 -3536
14967 21670 9556
33278 33527 19646
12774 22922 31265
7241 11264 -134
27903 31529 -1118
494 32331 -2574
28982 26506 15513
4682 14750 1506
3707 20461 28385
2410 36099 -3189
6132 27441 620
29491 544 -3006
23579 36411 19863
28407 32244 -260
33088 21291 -1072
31125 11553 -2027
25289 24763 -1553
10771 3276 -2242
13864 18534 10556
28611 15893 28706
26862 36517 11080
31352 32845 30883
1483 26760 5360
24825 21902 21136
33518 110 34994
30709 14632 -2574
24828 18117 -226
32646 3727 26953
13949 23399 14574
20742 16631 24941
7089 8260 23830
22335 14700 15310
5566 28698 -1861
7881 22160 -3719
31507 4891 9526
21794 20503 1903
20153 3973 -1831
35216 2807 -2256
9573 32455 26460
22119 24464 30342
8215 10191 -1763
13239 795 -1261
10688 19928 20203
26856 22599 -3733
28440 34225 17189
18530 33824 -3463
7606 23873 22831
36295 19018 -2593
3341 34605 28821
34486 23088 4175
31467 1993 17010
4208 10772 28446
9132 18612 -165
3425 28707 10577
6209 9671 -2770
28338 26575 -924
19569 20920 20069
34703 20109 -2860
30648 12639 36421
12244 31129 17720
20174 28871 32458
27662 6784 -411
6880 33442 5174
19677 10326 29880
31350 32460 5244
20108 9786 -2493
15329 28185 -2349
32682 22783 -2441
1211 21805 -92
18025 9132 -47
3209 27344 -3731
32291 32721 36338
1038 3 10114
14272 13609 -344
1946 35311 -488
30875 14803 9912
37170 15486 26053
19224 10519 18686
820 31785 15720
24513 11593 13198
25519 12734 -2405
9537 18715 -3123
33818 18 -1422
12070 25112 -1115
1489 4586 -1162
34658 8130 -3034
14918 32901 13550
17624 7866 18699
3325 11432 10901
21178 22997 8671
32343 13590 -2350
15476 37454 -91
34165 24468 14284
8279 2215 34246
28665 21837 4736
25447 12781 -265
17005 37064 -2947
21063 25433 -400
15188 20204 9921
24333 12908 -1579
12414 3789 31296
9023 5744 -707
3823 29347 -19
15812 26920 -2181
21651 25504 31969
8255 2921 29578
12762 35548 -605
25832 6431 -3008
5515 17090 8186
9993 25616 -3461
7501 20969 8398
6382 21092 -2066
37092 37206 -3360
10241 25878 3667
26647 2892 25076
12008 8755 28144
32420 19070 -3233
5715 2568 -973
18442 4778 12305
32435 2833 -2692
19813 10148 -2998
7666 33957 -1617
9783 15753 -612
9917 21363 15292
2824 36384 24920
25146 34274 17870
30088 19384 29964
21190 27763 26828
15197 36413 27253
7188 8852 19479
15792 27488 -767
29260 28633 3397
28141 20715 -2157
20053 3160 25157
34313 4563 -3571
35232 6088 -1776
24026 12757 298
4183 17223 13265
25373 36587 -1885
26065 29580 23635
21772 33727 15088
36090 1631 380
4512 10213 13525
27045 20950 -675
11861 6043 -838
30018 16615 -224
32316 15049 31168
21898 19960 -256
28454 19796 31129
20186 6520 20009
15807 1185 14470
22347 6000 -3595
2495 36567 9594
15622 9561 -3456
26732 21691 37105
35574 31540 -1598
20082 3100 15700
5032 25638 -3030
20112 28179 -2401
7374 21415 2901
37449 20147 -1784
36253 20010 29577
24705 28399 -3613
36158 3273 -513
273 24068 -1467
25448 16856 34943
33278 9310 -570
3205 12098 -420
31760 7203 -449
2165 34935 -2216
26959 33633 -403
19501 24727 28873
95 14766 -2089
7426 8648 -3321
22135 21799 28419
6816 32079 -2050
820 4859 -641
31099 22250 25234
17048 11426 -2900
25606 8746 11052
22800 26856 25179
5200 10042 -1607
20799 26420 -1968
18004 14985 -1117
19826 666 2875
3723 34677 -1682
6069 15727 26957
11024 14516 -3630
4436 5695 -3036
21499 29408 36452
4560 22784 6267
11916 9564 -232
12616 28134 13767
30582 24333 11048
34727 18399 -1344
4376 12074 -3078
2132 9603 -35
36714 8419 22006
13586 11033 19061
26846 19664 34400
18860 8735 -2447
21282 35146 21756
32483 7255 -3409
9998 10053 -324
31578 7598 -3334
18900 13425 -3191
17275 4803 -95
14583 5565 -459
23592 11899 29703
4099 1125 4535
23840 25492 23696
35294 5831 -1544
35560 30209 2652
29817 1665 -1178
21357 11645 -1274
4877 27309 -2013
18933 14018 33344
5296 19463 17459
26843 26447 -406
19826 8186 -2970
21492 35013 -1125
16695 26599 541
2456 21491 -11
7802 26622 1899
22650 29826 -442
9270 25109 16316
18820 16792 25515
14549 25464 -1922
22408 20161 -364
13811 13115 36144
29042 13048 -3401
31768 1389 16440
6557 17893 -1242
34708 10199 -938
21572 33064 37
33121 13982 -3657
8649 870 36434
20261 2389 22620
32387 1967 8974
33056 19115 13654
9210 23715 13824
22599 9274 19085
33127 23238 -3123
22745 33194 -2378
6442 19687 5325
20317 7160 34324
3753 7861 25155
12500 18456 7079
17422 11725 -3077
10968 19827 -120
3767 20483 -409
30629 13103 2911
18556 8736 4299
6785 15889 3496
32836 7592 -3328
26964 15120 23503
25277 11277 21855
2956 31163 34831
27246 10836 -411
31622 7932 -1141
10371 6511 -2226
26579 26598 13274
23543 26055 496
12106 20783 -1375
16886 26597 -3452
29910 25648 -1289
27432 26783 35669
8843 28131 2860
23318 20627 37430
5136 29418 7151
14821 17890 -539
2402 13872 -1806
9312 4920 -2097
20494 35709 -67
33304 24137 -2481
11286 12664 3984
4366 6772 -1806
8439 35388 -2902
17200 21664 18889
15476 21373 26035
10579 24101 -2685
17350 17021 -1330
25575 2473 27426
24555 7600 32653
33855 35586 27321
31034 31277 -2035
10624 32288 29417
3155 12602 11337
35229 10093 14866
23357 7128 35687
4014 81 18881
26964 29049 15801
37357 22430 -448
7031 11372 25508
5895 36581 13028
33131 5827 19627
24723 8605 8170
1895 27502 24194
4200 16965 -2093
2079 8393 10721
32112 1381 -1923
31574 15437 -1217
18261 16323 -1282
29188 29635 -693
24226 20781 -324
27807 10525 14373
6968 4524 34891
6890 4627 -2982
33544 6275 25643
32270 21755 30823
28914 27127 -2527
11379 32345 -1463
7368 28714 -1277
17613 25595 8550
26773 2559 -613
14457 17284 -2205
6323 22550 -3205
23373 34860 -284
15198 14851 -3696
17101 2652 26347
31115 19845 -3284
34198 30178 26072
20616 27168 3652
36307 22238 13025
12420 19568 23408
3513 3725 27427
863 12255 8009
801 17486 -1723
35906 19855 14760
374 3748 36269
29140 5148 34106
12263 35302 -2555
19998 27756 -2229
11351 3948 -1045
28332 27187 -3277
19874 28283 2096
4934 23060 -2772
18127 28606 -425
29513 13464 -3677
33642 29546 -699
14701 32883 -1132
21361 384 -3570
15974 4968 29113
22879 31448 31555
34612 17531 -3143
20398 30150 23587
35961 11369 -2629
28401 5417 29385
5651 5654 2887
15047 16367 -207
18240 14323 -2123
8162 26455 36529
21067 9234 2225
24355 11066 -213
17926 29913 -1677
11778 5597 -3094
5422 6642 -3613
14939 19855 33793
25065 19283 -3387
25938 594 -3211
36479 15988 -2583
31447 27272 9131
14007 27263 -3623
6874 7605 14538
6048 33947 -2119
8504 31534 -2973
2214 26017 719
26720 33024 -2957
24323 3398 -71
10454 8761 33181
33842 31414 -2945
10554 19823 3079
17418 26371 -3447
30340 15128 36451
33924 22418 565
15438 17021 -312
29200 14936 7314
31604 5743 -883
36159 20797 -1218
3356 21462 10977
31886 4235 12758
27985 16234 -3698
30896 29635 28013
20284 16546 -1500
30416 18435 -2310
13541 12951 -2597
26131 13877 11379
17820 9757 -1138
27714 31171 -834
16387 2218 15621
19489 13690 9981
25355 8804 17294
24756 15828 -3427
19242 22651 14727
30977 3713 -2543
23011 33930 5218
21783 34343 -30
23377 24059 23452
1236 29028 -1263
31339 36484 11213
5879 24104 -2530
24326 818 11409
10889 20074 29577
27433 19048 27619
2953 20844 -3388
6515 4687 30620
30005 32862 -3239
29722 21763 -2616
28782 22618 4180
6752 9489 -813
2901 8052 3035
8253 16081 -1013
24362 17833 26497
14645 3041 16375
2127 711 35299
35876 2290 -2958
28718 32576 -2344
24365 36339 9918
10006 23233 -2100
26804 11537 1216
17871 12340 31272
12970 10189 13230
31296 12001 -1103
23214 29759 13944
29271 11849 -3088
11067 26199 -3405
10670 30536 -507
11624 17888 -1199
24740 13863 10636
11604 19611 -820
31468 3305 -3127
34617 34111 -3285
5827 4755 23039
4039 18227 24150
34957 17261 -2990
29304 9015 24114
1826 37397 26830
31881 8588 2330
34056 29261 19776
9275 15617 -3391
30221 20288 23779
3450 10806 -258
28530 29133 -3339
3641 13984 2389
36671 16955 17910
25491 27678 27136
27626 36033 20136
53 23708 34067
21292 29375 -2863
494 18324 10269
23163 18994 18625
14027 19228 3274
24999 16478 -50
29031 24499 25630
31076 35285 18753
32285 1781 -316
24740 10633 -1173
4655 2 -3153
31255 14340 -3573
1019 18086 -1206
30065 36151 20461
21245 5898 -3681
20526 21493 -172
16252 31777 -1419
23152 17811 18969
31582 7903 18947
25718 13668 32224
14651 36858 -2007
24459 23012 -1434
4276 982 -2460
29387 29095 10758
22651 8190 -902
2265 9245 28845
31309 17072 -1706
10654 22367 19954
248 36204 -392
34008 23180 -2013
32733 10583 33996
23773 25223 -2981
1324 25445 -3227
20188 14128 34968
11902 9422 -2919
22268 31689 -3059
11863 17683 -153
17906 28757 -168
5773 29493 -1939
571 9048 29362
29863 25763 18721
26074 27107 18208
8396 7035 -186
4527 18620 -3028
21603 1502 34621
7724 31636 17973
12642 9917 -1276
24152 23578 5361
22958 24924 23447
23404 26530 -1251
32752 6798 -355
1309 8371 5684
23631 20743 27265
18851 18202 14041
20704 23484 17148
28635 18442 -513
4036 29614 -722
116 7584 -1933
26382 21988 17106
2459 18267 1265
35816 32227 11841
11911 19397 17486
1718 16228 -3407
4939 12543 -1662
28427 22439 29700
26150 17278 8326
33986 7771 10587
3402 30466 -3375
28977 13028 -2112
8064 15650 -3026
26917 30300 -3285
22231 3809 -2548
28633 28242 -858
36499 16464 5162
24347 21982 -1003
30257 12712 -3046
906 27326 -3025
36242 19858 36894
22567 28488 5922
7120 37195 -904
16364 18645 18899
34222 36228 -2890
17596 21912 -1268
26289 9351 23782
30430 14475 -473
34138 13159 -2687
24557 29267 8484
710 32331 15865
19385 29868 -136
4779 27652 -1669
22029 15013 1395
33849 31909 -2561
32378 21157 -3492
518 7490 -3243
10334 37495 4896
28747 1165 23178
15530 30621 -1063
13764 22446 -256
37161 20680 8993
16043 18197 20580
27240 19045 -1496
34077 22226 -2349
35500 29486 -702
30073 17983 -874
7350 3165 4147
14849 16265 30038
12900 31117 -2783
5973 32364 366
6534 9416 -250
31402 24290 -1661
22006 15572 -84
18387 30058 -572
37461 17393 743
6619 11252 9514
24895 26369 -3714
22351 34023 -3335
13868 28953 33361
33397 14288 -502
35340 19434 -1518
10467 36784 -2992
24716 4240 9138
8632 10472 -1171
26558 260 26970
29570 6537 4283
33777 24920 -50
34001 34389 16836
4664 18184 17756
18997 13001 20800
27907 19234 -444
34815 5047 14324
9018 957 33954
25859 35943 31778
32711 37055 -655
11583 24089 4632
29102 7454 -2415
26942 7921 8162
25440 24760 -2663
29040 7769 -761
16130 27388 -2489
8949 10649 31360
16454 7069 11124
17776 31881 28173
33724 12221 -520
27217 13888 15206
3450 27285 -1569
16995 24200 -1066
2218 4697 30078
31595 9798 13366
65 8322 23773
36344 12665 -2790
941 5333 2668
29659 28179 22733
21927 22315 -1484
12388 30306 -2703
696 21981 13415
2421 24801 -3467
27731 9604 -1538
19606 24196 -1746
29737 24085 -3470
5667 28968 -2253
2973 13549 9156
4484 7095 -810
22380 1779 -538
34000 245 -2681
28266 8578 -586
20898 23337 18341
22176 26815 15798
24678 16531 15608
35514 17576 -3079
28185 14779 -2808
24482 16293 -3401
28827 33946 24398
14662 32452 32360
7534 9758 17826
1010 26421 -1418
3027 9757 -1851
7014 15051 12631
35380 12046 -2205
6070 34088 23806
18417 21782 -1123
20545 7649 17681
34702 9615 6830
4445 24266 350
7480 35526 -1784
34267 3061 -623
9699 8906 19361
6745 36592 -2567
603 3510 10722
9460 464 -1456
8970 7504 4613
34979 19189 1738
28608 807 15721
17908 34118 -3653
16324 13417 35073
24878 3533 9777
34991 5278 5877
20277 31086 -3245
7591 12795 -3736
11180 36267 -444
23774 33146 -3087
11010 30031 -1370
13257 4694 3668
21403 18350 -372
5594 36800 -1584
30984 11563 -3622
10194 33271 5938
7724 5986 15589
32552 2162 13616
6881 24489 20851
19637 24545 14165
36870 29996 23775
23817 18578 27445
30070 22061 -515
12824 9034 32957
21749 4866 -922
30364 24473 24081
36544 16682 -1604
2646 32515 6050
13888 28020 15573
670 18596 -1149
14208 30061 3222
10593 15439 13551
32245 10834 -5
32755 30921 -3538
30318 15989 19163
11742 30224 -3288
2046 18651 16634
9995 1252 29913
31668 9915 -836
18529 9001 33014
5422 23076 -37
34146 34665 3528
13255 25280 28441
16619 24806 -1797
33485 19150 9953
17859 5117 25081
15955 6439 23389
7269 22779 12897
9034 35193 -214
31202 36190 -1409
341 15510 2104
21663 34675 36281
3955 28683 10418
1971 10386 21612
36405 19722 25112
36089 32178 -247
37014 12641 -788
6233 31872 -2117
9071 7785 10342
24271 9786 -1721
18209 7614 -2752
8214 25753 33324
1466 22062 -830
33842 10911 -334
34907 16321 19448
15894 28970 16308
31769 7840 25117
4551 14504 20034
35582 10373 18020
6382 14099 -761
14023 24537 36206
18043 36837 37489
15935 21061 -2262
17378 21570 37045
31026 11984 -3204
1050 34670 15410
2359 28661 -1385
24107 26249 27387
19250 31084 19572
10631 24855 26080
6179 521 -1166
33866 12603 -1290
24271 30708 15346
2280 28824 -2772
28511 24184 27305
984 6285 -2272
17769 4499 14551
28865 35357 1306
22130 15082 -521
20738 26030 -2886
28927 6918 -279
28675 10659 9493
26785 4834 36034
24765 20058 -3400
3825 31067 -410
5764 29089 -3431
22780 17524 -2492
1068 25683 -913
33025 27198 25982
7317 34689 -2015
12456 9054 31079
5956 34637 1287
25861 37134 16340
36923 18731 30497
7748 16581 -3318
12075 32227 -2045
30573 34454 32848
31845 800 15749
12736 7482 -1120
16224 8653 10381
6802 1898 34134
10028 4862 15728
36438 19162 -437
25804 9080 18317
35633 11539 8720
13580 34366 27892
34735 8586 -2103
28523 3376 -3547
30684 7514 25543
30392 26619 17365
11151 33116 -3695
31706 19807 36267
10362 13005 5625
29903 17190 -1070
18287 10188 27720
34854 30097 36361
33831 5365 6776
25060 23920 -759
16238 36720 35871
28903 27876 -3614
8599 32292 30669
28875 17514 26342
16836 11899 -696
29960 34548 12937
30328 26260 -1499
4658 10421 -321
15319 14296 -2194
1803 37364 -2725
11907 30787 -2042
31846 13010 -127
30610 24819 -2621
35334 13505 502
5736 17892 -2937
27461 18611 -2439
15893 1303 -814
27709 11868 -1474
27505 37026 -877
15763 406 -1929
19104 22705 -3065
9885 23276 -2062
13808 20790 18988
4299 15551 -2796
28828 18109 9730
28192 14916 -181
18961 1299 8242
7347 27427 -847
37044 34248 25238
2846 6379 -887
10662 10532 -63
25541 864 -737
24966 17096 -1452
1532 33854 15543
24684 13669 34972
19 24517 2728
30767 36673 19600
31755 25813 23479
9730 21330 -2486
9987 13601 14540
33410 23594 -3136
37259 2753 -2515
12817 30416 -57
19043 20945 29037
24474 25097 -225
22201 23717 -1284
8161 8234 36421
6044 13448 -1327
25054 12330 11744
2749 4237 35226
29700 22693 -3331
455 5487 28873
11733 412 -1680
24934 7343 -3311
35859 28826 -31
21109 19960 11691
9952 18431 9277
14018 32113 -2470
34743 25211 -267
26572 497 309
31069 9148 -1799
4410 6908 32786
23324 418 -2315
5374 6703 6500
5931 17137 -866
22500 11195 35721
31685 9822 4735
22300 34835 8466
11932 33458 4097
5700 31915 -1901
33091 34713 19309
32097 29493 35129
13103 272 -3603
23709 18344 32568
5705 16226 32563
12667 20656 -2124
24067 23482 -3225
24683 27072 -3598
34086 30293 9023
34281 1054 -3630
31562 1923 13968
13942 4270 3640
26894 17402 36590
1459 34039 -3329
7727 9387 35308
7785 23144 -2159
9278 11210 -3332
27499 13835 14060
20494 15669 -973
4138 15243 20707
3482 5405 28660
3340 16455 29085
37429 27706 -3444
33850 34344 157
12127 9676 4391
28866 21870 29605
2884 19516 35510
27347 10606 30752
746 24543 -1631
12682 25436 -1567
24080 20826 -1009
6581 27537 5788
9070 4190 -393
1945 24906 -957
30173 21488 37124
33119 23744 36852
24797 12365 33308
25183 29207 -197
26467 29321 -3588
14583 22067 -1847
17604 27458 23270
1065 33021 -1857
21868 13249 25593
24686 3052 -2203
31370 11691 11148
1792 30180 -1141
23560 216 34437
23922 21255 13930
36721 9965 20017
32019 24971 -864
4181 20155 17574
33013 14797 -3729
1062 3695 -742
12304 6749 -302
12950 15457 -1868
23315 5313 -1658
7930 9980 -2161
20195 20822 -1126
17222 32413 -1421
876 31118 5659
36714 14800 -1892
20444 17153 -1102
23667 34329 -3299
13532 2158 20384
19228 14424 5407
96 12383 8749
8944 29861 -3630
18641 5837 1417
19051 27760 -3385
24843 4325 -1620
25143 23395 -3442
7762 7358 18720
7022 12547 28219
25768 34986 -931
13175 9283 32949
18230 29722 8310
26273 22124 31858
26193 4100 -1853
37220 28664 366
5417 35431 -1725
20621 19579 -2271
23487 20298 -243
5039 25458 36674
21680 6676 16343
12449 20659 37216
21602 18480 4499
15541 23739 -45
4811 17565 -3156
14766 18308 -3461
23810 18081 -1503
7960 14218 -8
33632 10838 -3421
18771 25702 -3372
36266 26036 20527
11548 34519 -2657
2416 18374 -3079
35913 6377 -115
24191 27347 11860
32930 3138 -2225
11715 24524 16398
36186 2369 -3177
27173 15517 -1540
29531 3539 2892
3032 5434 -2432
17823 7786 28328
36618 27952 30778
31873 948 -16
12233 820 23435
17968 18232 16757
727 9053 8218
30367 25477 12090
22543 25219 -2646
15634 29957 -448
19758 5220 -2762
12067 11421 -866
23415 2889 28106
8762 915 -1312
35636 10677 -3289
31891 30809 -343
8313 28230 -3533
613 18192 -888
15018 11659 -340
21063 23965 32073
2783 14262 11109
16940 21473 6349
14710 4167 10085
19257 24739 29069
37495 36653 23371
17384 9137 -3620
15464 21632 -2361
33885 35009 -1774
276 19410 13706
19184 8934 6053
3523 18980 30596
856 35632 -747
35874 24175 -1898
2049 9872 6901
17618 33196 18311
25346 7501 22369
17040 24202 10241
30365 5175 -1504
1461 31468 -1263
7668 21135 15628
4761 23963 22915
24778 1844 -668
18485 18813 1295
15855 29195 20352
13665 26386 24351
18021 33867 -1608
10124 9585 -1071
23128 6856 -593
31124 24191 -3455
8867 20817 36287
30808 21033 28293
8212 10436 23318
26904 15378 11256
24304 27513 -2862
7848 25470 17260
16819 6311 -2669
20439 3231 16992
1753 23046 -1426
15788 33959 -449
29196 27683 -283
19584 2651 -2196
15625 5694 -3059
8853 25225 34254
9186 4942 34364
6811 24291 -2594
3272 9029 -1445
21079 14816 -1377
5454 26157 35355
18919 14500 29961
15961 14652 17193
16889 3444 -2172
29820 23045 -191
34626 32931 5747
4910 9626 -2370
13675 34610 -1312
6121 24216 23484
9618 25967 4218
7804 24625 -554
15676 8285 522
14593 28178 25348
27342 109 14492
3832 25570 33911
23045 18891 26176
26773 29925 36890
23489 35442 11441
10249 35932 26887
3256 17992 -3436
11254 5735 -2075
35996 6862 -2608
8794 994 -2752
24589 34887 30767
6841 30650 13762
28545 32778 -1873
19197 12537 32179
1831 16950 -2521
8800 9542 -1664
1595 8122 13984
9782 5241 25946
25030 8312 -1525
21128 6180 6469
11363 26626 -3341
4674 24894 23612
14068 3633 31357
20468 13718 11644
26930 5295 3008
13885 18561 -3388
12177 27424 33387
635 2226 9155
2981 9391 33709
29164 13754 -2842
30830 17710 35378
9080 2170 27609
27737 18860 11386
25823 34989 -255
16221 16359 -3239
20402 16127 -1734
33143 15338 21945
29369 29171 -1103
6013 12182 14333
8486 30128 1767
33648 18287 -2194
27221 772 -2738
24239 35368 29802
9215 2903 13951
2287 34405 29665
1383 36587 3967
35799 36611 1558
521 5270 9757
26019 6073 29314
7925 16016 19661
15346 19724 35312
30295 27614 27405
25837 20161 -1101
25234 17838 18507
16193 28970 2805
19381 37138 27512
12815 4651 -1521
26498 7658 -2873
36441 18076 781
36647 4886 13392
8378 34831 27425
7338 34474 28631
32923 21294 10907
6721 8576 35136
19600 36703 34950
1227 33265 -1193
24622 12712 -966
20543 16411 30374
34778 18595 -2247
27599 34384 -1815
1719 7404 30737
7184 13528 -1814
23135 12010 33135
26510 33434 30512
2439 27487 -2667
24951 18098 3164
28755 16352 24163
2186 23619 27427
47 22207 -642
11733 8066 -3516
21637 4171 -278
6102 7361 -1000
5057 8301 -2960
30508 11901 7191
13967 35116 32309
15708 6321 13463
6410 2441 8585
26906 21662 -123
34764 32666 834
11025 22435 -2372
8122 4434 -675
32578 31282 -2125
16794 17642 9912
17989 16067 -1531
25211 22833 -1848
34066 19103 30126
31317 25911 37460
5079 12327 -1886
36006 28359 -3566
24347 16508 -2275
11583 28624 24224
4499 1730 -1103
8252 35622 12411
11424 36095 31780
1541 15998 21817
1404 2762 28320
12085 28757 1098
5698 6319 37029
15222 30690 32417
5247 2470 8390
2566 34086 10506
15783 30137 10116
21544 2764 27325
632 21225 -1767
19337 6517 -3625
19350 15866 34643
1190 10390 -2068
31522 8412 19880
10415 7603 1691
20078 27434 -1480
9284 937 13977
34819 15008 6644
1007 15430 -273
31476 108 17083
13124 4906 27967
11281 30310 26220
32723 2113 17190
27988 7796 -2989
24616 744 32327
31158 25310 19189
13534 16789 -498
17925 28775 -2356
21113 5155 23184
26313 30596 17986
10411 28204 13877
31493 10554 -2519
15875 302 -356
37243 26287 -2408
30093 36323 -1468
12587 2251 -859
23145 17674 -2651
22581 14796 1616
33646 28820 5543
16809 27028 -440
1914 30834 29720
28416 35772 -1893
21639 35136 30435
36766 25512 5611
8987 32647 32992
36978 28412 -3662
24556 29292 7512
3497 32496 -2171
3632 20068 -1314
26097 30488 6467
31204 30488 -1820
4982 23901 -337
7280 14855 5330
10976 30737 36925
2779 28563 6525
23990 30933 1806
4485 9033 -1704
4462 17375 -2698
30777 7048 12827
20992 3636 11198
16537 2536 -3672
10819 28049 -2136
21540 20280 28821
8276 31930 -2221
28245 6838 19642
17599 12798 18497
36257 2557 -2730
30905 21606 -733
16627 25214 33309
35631 27866 -2425
336 13015 18397
843 10809 -2471
15119 1849 16175
6481 28915 -3
8614 9322 -1608
17768 22691 -2118
29860 19236 -920
2117 4811 -3095
29523 2443 18372
21817 11556 -212
35149 29509 -3401
3822 10675 35222
9433 33144 -2179
13310 35090 -2689
12698 8447 -900
3325 23728 -940
28776 36058 23571
15881 4902 -606
19346 29313 22009
6899 24103 3769
26555 9902 5333
7312 18952 7659
33867 1460 5711
23890 22389 -1540
18781 30638 -1229
13692 26539 37494
16380 6207 20494
4938 790 23643
343 25406 36460
13396 37159 -3600
16308 11743 -3139
14651 8433 32764
962 8447 -1563
22549 17894 32594
9429 29882 10542
34091 1104 -1366
11657 29817 5967
23329 20240 -2912
26527 21862 29571
30446 32389 -1893
21999 12632 -3480
31033 20280 11415
19003 5150 9794
12650 33149 -2914
19177 15195 18293
36326 9145 26559
11544 915 -2800
22669 7414 37039
23998 14417 12344
13086 1379 20316
15612 10288 -2632
1412 35877 -2770
9108 21778 15010
22584 27348 -1070
10179 675 31767
33246 31198 -436
10413 883 1305
29556 23206 -1591
23448 12461 -1070
4591 11737 33131
4420 11772 -3306
25369 17452 -2281
6705 23017 -874
11657 15217 6235
16805 11212 25295
29167 37391 -3416
28342 23299 4094
22882 16561 -311
30715 37112 -3338
15896 831 5002
37120 31368 10884
27672 3956 -2159
646 3133 -1895
4207 36492 -2895
19881 5226 5487
27714 6904 19525
11415 14335 -674
31510 3612 26576
8950 21461 -827
36940 17376 16116
8584 33758 -10
5608 7870 -2057
35561 29652 -1887
18689 18546 21153
27483 872 34645
30968 21928 -1065
10132 15326 12565
6172 12475 -3240
12858 16047 -2957
17547 35628 -351
27594 31869 -1147
30388 27926 -2740
20602 29857 -2981
30631 21733 -2877
14904 32596 -1454
35734 12989 -993
21494 3562 20547
21005 4477 18356
34095 28423 37429
33931 1490 -2680
25405 37246 13597
36684 9761 14898
24893 2839 17069
19642 20514 26737
6778 9328 3728
15526 1116 -793
35165 30336 10995
2075 13914 7866
14979 152 -2377
27152 35289 -256
32957 17872 -252
19185 15689 3819
14859 27644 -2188
35037 36301 -813
6059 14638 28117
35386 16696 30776
11551 15942 -1022
11484 34031 -2096
24420 723 -2298
14578 28291 -3647
21708 11404 -2150
17932 28225 1120
36168 31279 30021
1979 3458 -1996
21459 1321 27440
28932 20957 20952
9422 932 37307
22101 29407 24724
19803 16551 -3191
625 13441 20519
998 3169 -620
18037 21601 -2818
19491 13185 -2577
30968 36412 19100
26855 15990 21101
1565 9957 27186
14375 19527 4996
18062 32405 -2525
23103 2243 -489
14421 15051 -3398
3404 8781 35701
22052 21040 -1745
7322 4739 14965
32027 18812 -2164
36545 25312 37173
15461 24721 16155
5654 29136 -967
20505 33934 23529
22919 8765 20577
2260 16062 5772
20144 30916 -323
30781 10375 16033
23911 14844 26729
24249 19254 -2366
24347 17471 33492
12961 25287 -143
37489 30093 -1685
14400 36973 -109
14989 17492 31248
32047 24711 7215
37186 11622 -2519
24132 2884 34202
9709 8653 1991
5261 3469 25198
17887 8974 -3324
5860 14367 -532
11957 6222 -1392
24841 6687 29752
22866 11627 -1436
8450 3610 37339
31084 35665 -733
29728 34375 -2588
4374 2557 37409
20023 24587 -652
17676 17766 28893
3388 22956 9143
28376 11092 -2820
34851 29335 362
12915 16966 26436
21157 9767 -1392
6445 35480 19228
20721 14477 -2706
7215 2144 -1213
15877 26039 29217
26974 6459 -342
3289 28878 -975
31205 24943 -2073
15456 6779 25548
11093 8967 -1700
25778 14622 -3485
11579 8450 -3326
23687 37188 5173
18700 35247 16378
14233 33397 16197
25864 21289 -1049
23229 8375 3153
6301 36139 -1094
19677 929 24990
11391 20443 13547
61 11546 29318
12609 7484 -2154
2183 12189 4934
18898 33597 2902
15146 1603 -2545
20058 30142 17561
11781 30239 19463
18756 19481 -1251
27507 35735 32499
35578 17367 -3567
22806 24028 -1284
16121 21221 6411
24687 22620 -3698
28998 1238 33644
12081 29099 -1269
8756 971 -1295
2693 5292 31582
31739 18311 25328
20732 32704 -1257
30854 15982 18703
20474 36536 29753
31441 30585 24710
30300 22071 -646
33914 20265 -422
11927 646 -3184
23762 4352 -3112
10556 21007 22855
18675 8884 27596
23539 22955 -638
32754 1009 -279
32897 17004 -3670
5264 17338 2017
22743 26179 29787
5515 29877 33444
12584 15951 21655
29362 36247 -2925
15943 9323 3577
24057 3989 -2401
27748 7164 23479
29775 24448 32399
28478 1779 29236
19726 31358 4873
9257 15568 17091
35669 5194 -55
37039 10008 -947
8380 35355 36698
32071 11979 2057
6072 13020 31109
13350 36879 14116
24928 13835 -2132
10637 17516 -1803
33677 20816 11187
220 16123 -707
19639 33024 -2826
26649 21438 -532
26634 1768 30280
33948 11443 5981
21725 34589 -879
8909 20772 35815
20611 21926 12088
10221 25366 -333
14490 25866 5275
32412 35638 -370
37420 21663 -1986
21525 36378 13744
11020 1458 36122
30735 3704 -3732
28675 2551 22162
3924 4901 -1476
21121 36179 7990
8445 27363 -1390
2031 23107 -845
7248 23450 -335
5171 727 14787
36125 1405 -1987
16742 7937 13036
7891 22459 1177
34258 29138 -3468
23193 26761 19172
11197 30564 -710
26949 7121 8261
672 28652 5566
519 21172 26088
7874 29921 26286
15745 36527 18528
208 20838 -36
26420 35625 35931
27067 25233 -2955
99 19644 -2559
14352 13610 -344
7499 14648 35018
2325 17535 -1479
28523 27748 -1723
28501 22624 -1917
27529 591 -2352
2082 10940 26665
6905 12847 -2026
14320 11223 32994
4584 23646 -440
11131 1832 -45
20695 13126 -231
3504 425 34967
11829 25657 11376
14011 35434 -1045
20990 22785 15963
27892 6625 2274
12668 2187 -2954
1561 1556 20657
20363 30263 34205
26191 34633 8740
17222 23372 11957
26676 34748 9456
25848 1601 -2450
35946 29077 -1206
36705 8092 19817
3503 26183 27961
21909 9 -2069
18042 16420 15799
27562 17501 -2041
11554 30646 32658
21159 34688 23570
10739 2945 36123
10356 22854 793
4269 12652 15373
6948 12021 -431
21869 29869 7735
27304 17246 30700
6500 12650 -2452
32812 37022 -639
17598 25073 28458
13136 25776 -1976
26755 36343 9951
12349 13647 27575
34852 14484 -2021
23700 23470 -2685
26337 19832 -1582
11538 35196 -3565
33650 30729 -3607
7619 29932 -2930
36720 2133 26726
22514 11472 -1866
20867 33053 16558
21885 1301 23323
26139 8018 -1377
11153 4951 16871
6479 23506 -1895
10148 7522 -3124
23480 2965 14740
35500 21258 23482
14167 29910 -3484
3096 12685 -2605
7519 10969 15058
32028 16214 28125
31641 1475 -1709
8769 15611 -1656
3033 11298 27129
26150 16128 -899
2385 28157 25152
36630 33742 -1197
36476 9592 33416
35073 11165 -489
3750 31073 9494
21539 962 11480
4576 12820 -2502
6239 26374 4958
9082 1184 -3525
4333 8460 -599
30428 33301 5956
26620 22552 -1050
24523 27544 -1495
14768 595 -1559
7839 9089 22814
17135 1546 10753
12750 18767 15184
832 16417 -162
27968 31676 -352
5036 12128 -3289
23529 19617 15582
34265 10925 -1684
21920 21908 34328
36320 2881 -2414
17510 36704 6688
28728 34324 29746
34135 7008 -358
9173 34966 -1727
22000 30788 12794
7061 25474 36665
4905 19995 7474
22337 35875 6983
23535 15964 -1470
18533 3181 -1169
745 36089 -1694
8739 20958 19809
30499 17340 -2749
15529 1811 11365
152 27649 -2767
29668 27295 32155
6093 12783 15081
16999 23395 -1823
37220 21260 -326
20408 27082 -3208
1101 786 14566
30781 34002 18987
2700 23751 -1698
20065 28257 -2973
22225 9286 -2706
25649 28627 -3492
1840 1031 23667
14559 31497 -3342
26987 23421 20060
21395 18062 3791
14185 26571 8513
9540 14021 -1606
14137 15820 12984
5903 15868 16721
31688 15975 -1138
12461 7614 -722
12766 30208 -2762
2135 29461 -1972
23726 24810 -3167
17903 13081 30721
2431 15086 -2786
13129 28434 31383
21842 21957 2740
2647 17547 -1515
28060 21926 217
32752 16083 13682
2685 8360 4640
17760 14403 20364
30928 19345 19211
17707 9051 12094
23839 6481 29919
20227 19783 23751
34755 774 -619
29563 17816 24604
7638 37267 35900
23492 29610 -948
28375 29138 7575
13631 23969 -2027
11863 9090 35143
21168 35350 30462
16808 4529 8344
15288 12849 31289
8492 9208 -1496
31755 29959 21595
35125 5686 14681
25977 35311 -2216
17749 24081 -2314
19193 15113 15819
5297 10084 -170
24247 29118 1784
4376 36663 18742
23821 15596 3785
25600 12438 21716
20331 13706 -1488
16677 26181 -1943
14838 15301 13311
22006 12312 22698
24897 1797 4250
29291 9240 37287
14981 34876 269
89 9821 -2094
22791 2152 -3510
29801 32209 1860
27252 37136 11777
18522 8365 -550
21748 11885 21854
30212 35981 31639
12774 5886 1709
18283 21909 -1300
26233 10588 -2976
3467 14417 -698
30284 15653 9697
15272 21972 -2131
4633 35652 -2438
23158 32987 -93
7994 22007 35352
28274 18601 18949
3427 31436 -3343
423 8465 15088
29360 32808 31545
33641 8761 19411
597 13850 2464
33657 840 -409
20302 25993 32712
8306 25460 -3527
22212 11255 10923
37421 14726 24431
23861 13566 13944
27950 16817 28996
24130 36945 6573
36759 31699 19330
24224 25260 17782
4952 29623 -3715
2241 22080 -1990
14530 14232 -724
21410 15553 -2552
15233 31871 8455
29203 33317 7696
12910 13459 -2177
35413 31370 1756
21330 22969 34476
36277 30381 -2489
28620 29975 12440
11316 18307 3495
3423 10920 -519
31668 19173 18691
21729 19241 21105
25560 36231 36438
17302 25648 12735
6694 7438 34652
36502 24543 21746
15798 32698 5863
23703 20983 13199
9580 5269 4004
21400 24572 27492
7512 34681 -1701
3258 15006 -3495
23800 35947 6710
22747 34578 -393
15409 17040 12454
17046 9360 -341
14954 25702 26142
8939 25481 1886
25088 6950 8034
29204 2913 365
18458 24857 -3124
20909 12986 16748
23606 449 -335
33591 2381 71
29751 22956 -3504
29569 18894 -677
11486 15013 17922
36603 17755 -3521
16781 26321 1736
20150 23186 -1242
21717 13271 32075
9950 24478 32129
33394 6015 20217
28941 6411 1839
8285 16923 9040
27847 12068 33813
29702 22402 8145
29113 34797 4002
15871 2280 13151
22718 24759 19042
30235 36203 33266
4641 627 21515
8026 15210 19288
23781 30766 -3321
9675 4116 -1796
11557 6242 -2481
34120 26106 -202
24146 33814 -3049
25804 15349 -3318
7072 19835 18670
22736 18905 -3343
20310 23556 -843
204 18795 -872
226 30348 4785
32468 19555 20896
30686 14226 -2077
7357 13411 18362
24177 6768 3240
19273 13211 5373
1993 19862 -1668
21385 32439 28729
30183 31928 -3080
2596 31379 9213
20620 29271 13859
18203 29432 -1075
8937 12028 17947
19500 16454 -109
35466 1965 34325
2529 34218 13976
36647 32186 -3666
15096 14274 -3359
33372 24787 6830
35359 3429 -2378
25861 9107 20206
35262 18059 -2536
15309 24308 8478
22020 12503 -223
21288 37059 8492
31079 19465 -2101
21149 10374 -2033
36824 2305 15332
20977 28003 -1181
26673 17242 28314
5145 20941 -705
18939 36477 -869
1810 8406 4342
19289 6486 11038
1771 23016 21142
28030 11414 -2649
5235 26611 -909
34873 13859 31567
1412 33610 35764
11176 9943 19835
16030 31101 4383
7120 35756 -137
18011 13663 -2928
35274 1392 16097
1014 21599 -28
25678 10462 -1971
10738 30066 23311
2486 14681 -1989
15755 23810 19476
26805 17522 17380
33064 23273 19407
25397 35990 36037
28862 6705 -2459
5042 26125 408
4213 37226 31469
29520 25749 -3722
19983 6124 18427
5292 26870 29965
24206 17627 33419
16403 37363 -376
3557 6509 28908
9322 16625 35989
12475 34326 -2103
31914 35404 33464
20997 15000 16152
35610 14445 -2910
31489 24425 -673
37387 12214 29584
35482 28531 -2837
5479 26288 35103
22083 23704 -1429
8391 25285 14626
12513 4159 16566
7324 8076 7458
37325 26409 -1584
14164 21483 1808
14015 14404 -32
23483 15321 15662
5366 34329 -1045
26229 3668 -2061
23340 33480 23562
26725 33401 -349
12178 14464 2981
21399 23611 -2796
25908 4065 -3386
35917 25747 20543
27080 14235 25412
23075 34224 6903
37251 17501 -3366
1443 9103 18833
25368 19323 -1505
12090 3622 -1874
20339 21469 -1187
20246 11295 12898
29486 9449 1163
28042 2252 -2972
28966 5721 22354
28417 15972 7736
25946 8041 -2441
12360 8944 -2592
4856 33367 26660
6996 5946 -1212
37097 20868 5219
36394 12277 -3534
18559 23918 1860
31873 28798 -966
25605 20005 25076
28777 15072 27420
25234 20618 26251
8680 10397 12819
21627 28931 -2425
32883 32006 -2196
17909 1918 -3433
19398 27716 -1141
25345 7145 18987
32637 20615 -1611
12114 24185 10039
10189 26052 15920
8773 14584 -2099
17474 21267 -793
4384 20001 -3209
21411 10733 13632
36730 8040 5027
17881 34794 31154
4352 4344 -2400
4869 14743 -1595
25433 30992 -810
1740 14103 -2860
18803 25163 -755
18235 845 6075
20230 25233 29367
2856 25196 -893
23472 37361 22889
23338 24931 4991
26514 30026 -2378
13739 5570 23649
22869 35972 37308
25660 11359 -2935
6708 3567 653
17333 33339 -3241
5569 18262 1713
33017 33399 -2269
35311 7129 -3034
34970 33030 -3504
33630 20518 -438
17049 21955 -16
16221 4120 7562
1462 15379 15405
18977 25096 -2224
20202 28335 -2854
30300 14211 -2744
36399 24682 -3159
17348 14510 -1226
9149 11814 34183
35709 22091 -972
11183 10849 31445
2066 31753 23223
17341 14128 19304
8954 20898 16033
10100 27315 23868
21936 23956 -3684
4381 8375 27087
28946 27541 8581
27085 7415 33997
21489 33547 9414
25447 21849 22713
10401 13739 15602
26883 3779 -628
8373 6751 7251
33271 19265 -280
31086 11317 -213
22131 10968 -1049
17906 4207 -1993
16207 11791 23915
4337 35175 35200
18479 8805 1988
13477 11982 17066
28660 18401 -3148
6389 27386 -2491
9748 19624 -409
29170 34651 -819
8960 7890 15300
20002 33399 -3282
8013 1232 27229
23595 25298 24417
21373 22224 -2340
29869 27768 16278
4027 36024 -342
31928 10593 -1545
13911 10187 -786
22924 11448 13290
19028 5535 -982
21576 2696 33730
22609 6007 485
25824 8175 -421
2626 33477 -1162
20198 7992 -1767
16100 4251 -373
9827 31859 -1692
23388 9212 -66
34827 32659 -842
30180 27718 29008
13378 32229 1018
23389 8882 -2731
17736 27010 34561
13013 21803 22332
32085 24039 -2408
28595 7988 35953
26720 8984 28444
3008 16390 -3661
9313 18858 25351
32439 7962 -1676
20278 17854 -1371
4817 30579 8002
35621 19997 -2136
27362 7336 2870
22530 1914 -3542
1156 15528 8101
18312 14076 13252
30952 31952 -2675
12126 9348 15910
24563 31643 -2967
31023 6672 4592
35245 192 -1973
12761 29216 -2609
32460 36429 -2707
22635 37104 -961
36533 35317 -679
25718 16290 -2041
7175 35098 1016
3958 26647 20981
4592 22579 -870
3498 20241 -2860
8752 7986 -3706
6942 32611 18254
3167 1454 -3629
25920 15833 21085
36686 10083 -1066
32002 24731 -3575
13520 31822 25385
440 5858 -602
8422 16530 17164
23607 19316 -1896
14143 16229 3780
10332 25375 26765
19030 13561 -182
22351 15652 -1415
2742 25857 27487
30882 13474 1782
34780 27755 3035
4740 36421 4278
15960 3269 -607
13606 9676 -2082
11139 1089 6698
22854 32164 -1470
24756 8738 16658
13293 29418 -529
5632 15829 -2082
3990 32955 -2642
31039 24894 -722
1573 36531 26108
24153 17300 -646
19535 16147 -1488
23257 36365 -2412
17962 13572 3348
24713 14054 9099
32561 18159 20852
28395 28073 34158
19999 539 -1923
17951 4915 -3404
23106 32371 -1381
20249 122 30707
9310 7195 -2900
8616 35486 21264
35250 25335 35807
35674 11848 29586
7446 26356 15598
33446 129 23736
22372 10056 171
19135 5308 32528
19476 8996 -2006
16604 29929 24319
20795 71 33969
24898 32210 36707
28069 9184 -3719
9504 188 -1803
31214 31539 -35
16176 34429 -184
8155 27227 -1360
21150 28785 23196
21921 32408 19265
17578 36435 16199
25221 23181 9018
19238 31837 11624
36904 2129 -3041
5343 19978 16278
28311 20473 -2298
4772 20611 -1308
6908 11106 37131
20147 16599 9515
980 8896 -590
20256 11763 36393
21533 33927 -3707
15863 29441 9266
22770 20995 35881
11220 4574 8805
16103 3345 278
5659 31058 -3202
29477 149 -2599
30788 2530 4119
20611 9664 -1043
34405 24719 -726
31318 25160 19456
6836 24555 21953
24971 10333 5509
16050 26617 5772
34977 8072 36287
5270 1368 -1693
34630 35682 34783
25603 21592 10804
33599 11757 -1727
29289 24463 34949
23026 32755 33756
6395 19420 5552
24785 22949 28728
26116 1490 2891
29322 2594 17980
21146 18904 -136
36945 2343 -2480
20399 34844 17861
35761 31153 3304
34554 19164 1468
5222 17748 -957
19947 2247 -2575
25286 9183 15274
32950 26011 -566
20931 19119 18008
32730 14910 31749
33430 9445 9617
4860 36253 -581
6678 15603 -318
16713 6673 17658
24050 4063 16792
12087 24377 -1059
32506 10869 -941
33022 26143 27159
22886 943 -256
11051 14864 16334
3278 35363 1739
7241 1765 -3612
30239 23509 -2452
31466 6508 16342
36855 7053 17005
30477 21631 15874
23195 23438 36566
2293 19413 27274
35288 22534 16470
5138 13874 2727
12971 37242 1206
15420 22707 -1416
18364 23998 8147
10671 32419 -38
10362 9176 9795
12305 11403 32522
26783 6511 3940
13902 2705 13095
35902 27740 -1397
21591 22581 9714
23197 7566 -761
21251 14864 37432
15065 694 14457
4233 22020 30179
31634 12524 20774
24803 20813 36067
29889 8370 4496
18737 11647 -192
16700 17775 -3054
22742 9419 -3239
24764 3685 33563
35975 34925 -3206
25711 26868 -1896
12941 8645 26487
21862 17860 -505
11120 23377 -1571
35385 34155 25694
25582 34762 -621
30333 33722 -3176
12821 15116 -2955
36681 2801 -3633
22035 4295 72
17571 14003 30341
10746 20199 15993
23427 24207 34632
34126 22351 25315
17289 21224 -2733
24220 12277 -3693
5654 17616 -15
9457 35457 -2459
33661 22038 -790
15386 23172 -3675
5235 2661 -3362
21498 22642 -2987
10222 2361 7075
12089 29661 13760
14635 36856 -3407
8511 4749 21825
10098 12261 -361
12359 17640 10714
35656 27730 -2138
7221 9245 13750
35098 26197 -878
8706 20354 36157
5863 26076 -3404
6256 15007 32847
3258 3640 1462
15476 27995 17178
3580 10834 10396
10633 28331 1409
30622 4036 29491
27809 12338 19598
31552 23772 29130
5974 31901 -2133
33986 31796 9643
37277 16237 -2354
22249 11764 10631
26524 5733 -1942
19777 19035 19218
13654 35418 12694
14807 4754 -270
1581 26667 25485
1809 21382 -1718
7681 16305 13580
6909 3961 20559
16823 29012 -1614
10975 14800 27177
29181 25271 5162
17574 11643 6314
8349 35608 1556
25011 10526 -2496
34748 23269 -1270
33292 29880 36414
12892 34474 2333
18814 11423 -2822
7821 27000 -3595
12409 5206 20575
34567 22449 -1974
30978 28760 33294
3839 18747 25609
30506 36756 -3105
4179 33297 -550
6223 26313 -3204
3204 12652 3573
3808 30283 -508
9271 17000 -2108
19487 17553 11300
26778 3195 26571
13840 31676 -1730
13934 12116 18963
14269 19863 17508
11256 23155 -1786
759 23799 3835
1885 1505 -3705
5389 34299 -1715
14464 33585 -2597
18559 26303 757
19122 8776 1297
24575 28801 24703
25244 4863 34582
342 2868 -59
7275 22953 27940
33185 8574 25999
33825 9247 -2001
6177 27339 22879
17173 19108 -3201
4332 30531 -121
2111 16834 15592
26966 34381 -1088
9226 8191 20042
19928 9893 32872
25937 14706 32101
30300 6417 37040
19823 11879 -2406
22390 23745 -1762
24765 6207 -1361
16514 8747 22514
18553 11005 19512
23345 1682 -1712
24548 24206 -1013
12100 30910 -1894
21025 2384 8821
33512 4904 13858
1750 32391 32649
14434 2209 -857
1569 19839 -421
242 165 13043
6707 22118 -262
21029 31686 -1616
36470 10372 5228
23352 23926 -2057
3378 8858 -3418
31458 13665 27768
1645 8452 -720
16914 8196 19833
130 13920 3678
33961 14490 -3109
35730 8055 22474
27658 23399 20385
7506 13839 -341
5958 28463 14825
14661 15969 -455
24460 5831 -3061
30830 28386 -1744
21064 13383 -2634
30742 28758 -2684
23510 2250 33937
15833 17152 7454
24981 22049 2015
10605 13292 32007
8982 27696 -285
27755 36377 30012
18085 35015 -2999
31268 14699 -3697
30771 22963 -714
12604 21127 -3121
5456 5569 28889
7493 32844 29952
34508 13363 15954
8423 17237 35083
21908 22864 9928
1458 89 -2851
17351 16302 -1186
20328 29775 7279
22255 36400 -1021
10132 8068 -3532
8099 3345 8998
35747 30395 -571
29218 13486 13450
10996 15524 -2990
2475 36409 -1945
9167 35960 -3131
25198 9717 31197
20378 21904 21167
5882 658 -3149
9260 22554 11228
2841 25079 10035
6461 14007 24786
31586 22942 11499
32448 15492 -1094
3121 6309 34319
14238 20325 14692
7958 25939 -2344
17998 23826 -1635
3971 12492 -2723
24365 23909 30810
6923 1924 34383
6253 2005 20639
24753 31201 647
139 11674 21972
552 20554 33373
1317 7054 15075
15177 3591 24436
20367 6935 -774
14554 28246 -2980
16098 16059 15078
24678 6285 8791
30099 8094 28805
20988 6224 -3480
14544 27565 17162
32887 14364 -3104
27778 1030 16665
26984 19974 -90
32199 2908 8554
35322 16061 -1016
10560 3369 35651
14437 13266 -1296
29236 21920 261
16202 25681 6144
12916 6136 34362
30794 32838 25355
12245 2610 9821
13207 10517 -46
15602 23174 -2983
3325 20255 20532
33830 20594 -1041
31727 25381 -2615
28747 2011 -1180
6874 28667 14251
28049 31977 4213
12899 16301 9388
34533 2855 23690
18846 24182 -707
3835 9113 -2025
29550 35355 7649
21215 425 12583
34965 22266 11777
3252 18950 -397
13010 2441 -2396
972 10495 -3642
14591 10377 -2525
22094 23717 -2223
7311 30971 -2161
26206 3546 28926
17550 17518 25715
35953 10308 -1441
12191 22661 24753
9132 27372 -1592
13805 23686 8672
35014 27298 -2220
3299 18057 -1638
25987 2874 5505
1450 25390 -1614
24887 4263 -1423
7382 18449 -1503
28066 33972 2649
4251 33392 29613
14278 21912 22770
25104 2213 18742
34409 8093 18896
5336 20908 882
5148 4579 -654
7487 31679 20936
8857 90 -217
36298 17338 -775
21201 18921 25713
22460 27202 -2853
34122 24802 32191
31369 13930 -2421
35318 35387 -2978
15756 722 15847
22965 8951 -1574
22007 17888 18496
5086 18537 10461
32805 12253 -2615
36706 27791 23763
1450 10607 35332
22659 19969 -417
2351 10095 -299
12423 32169 -1727
35093 1226 -2281
15126 7955 -2116
11913 1465 6193
34768 23989 36808
14994 30891 13432
29569 5108 -3202
8428 30494 11585
18179 15587 -3632
19690 32558 4175
2836 9493 -298
2267 3935 29490
31524 29015 -1404
2226 23762 11771
35804 26203 -299
25168 26668 -1080
5102 4777 -1675
30750 5979 -461
23002 18325 27724
2030 19446 -54
8570 25887 27552
34436 34717 8925
21165 16518 2990
21993 74 -1377
15292 32544 -2
35182 7347 -1662
23829 17993 -2458
32014 17663 -1126
30025 21993 -1675
19459 5497 -2877
18477 16181 3161
30864 20608 35895
2291 26960 23252
6424 2751 5331
24780 33870 -2540
32944 34620 -3045
12314 1722 25163
12252 30146 21229
4823 19190 37291
3421 7728 16152
14172 26931 -306
26828 14770 19042
15732 35194 -1498
28603 19594 22963
17762 10786 12801
3493 28399 4911
4180 36196 -2246
27249 3693 -2530
27107 1914 17371
25585 30397 -30
18342 28455 33716
16996 556 14112
10169 33422 -1905
31916 3831 -569
17993 30772 -2626
25332 37165 23499
32406 17125 -1395
2827 12359 -3643
32101 259 4183
36158 30831 13701
6452 15779 6343
36904 5897 5285
4219 1069 22825
14185 30832 20606
1206 24912 9904
16444 10152 29264
22790 12022 -249
18804 16276 18237
3077 26612 11890
31091 1724 -1193
16971 121 11495
11322 33298 -1762
6811 4986 34825
8696 12079 -3520
6403 15917 37064
16541 26293 29329
17490 9670 -508
18998 14215 -3227
13445 9535 -2703
3195 27278 -3224
34204 4659 -1930
21861 47 -1151
33139 19287 -2851
24910 2214 -659
1468 4122 35883
35554 17681 -895
18270 34800 -205
18512 11784 36639
33789 19900 -916
31353 23294 -1580
1352 30584 -446
985 34284 -1061
19239 22434 17078
23849 22712 36158
3807 29456 14544
34107 30394 8565
25196 9469 2141
29194 17943 -1079
5123 28031 13557
16774 11018 8108
7805 8391 11273
13772 17338 -815
1522 34644 31980
11471 31730 -2461
4979 27367 18183
27219 19733 -1206
24162 9250 -764
2223 12844 19862
32359 3166 5834
11673 28692 -3415
9944 25887 1137
16855 5241 -2289
23311 29872 32259
18728 18365 28129
16278 31828 -3355
34352 30765 -639
26170 25040 5183
26723 34122 6354
27453 23489 25898
10601 36600 31919
32828 37432 -376
5387 4162 -948
34418 1932 5573
5314 30941 11468
27894 25463 33961
32194 10267 32569
17005 11889 -1379
30908 13119 24646
24309 33465 -572
21646 29295 -1437
14940 4121 -1652
18880 14438 5201
14038 9111 -1856
15562 10881 22366
22513 12301 11603
23266 35728 -3440
19390 24262 14327
27690 32828 31371
12240 23251 -482
23788 26354 29444
1441 17071 -1036
33593 30817 -1649
33109 26067 -1989
18619 9852 19314
8270 5593 31748
16935 37001 -860
19690 16827 -3339
10237 14341 -1932
4886 9588 -2994
32930 36561 -3732
27021 34372 30450
2121 3017 4429
976 35170 -2935
14912 15942 -3420
11941 36083 30045
26357 14818 -1645
24246 27300 -3485
306 2502 12496
12055 22252 -1607
30542 28215 5960
679 26097 31468
9737 35448 -1824
10807 36621 -57
13196 2128 -3647
17825 28572 -2679
28957 17645 25011
11413 32813 -2535
34502 35643 -1195
28393 25890 -9
2508 36133 -3213
8124 4481 10093
21731 8354 12782
3159 16521 31480
8474 14442 -1681
32855 19590 13140
26732 31341 17587
9037 30946 -220
30435 3211 16789
24406 721 -2352
32730 11923 -3069
18768 25249 -814
1109 9484 -2044
24433 17883 -2233
9685 34776 27300
64 13067 -3307
16291 5569 25951
35518 27991 -887
3634 19752 30031
34863 8739 -2740
16240 12569 9041
37297 24410 -137
26500 35942 -1159
34152 8826 36146
5526 33464 -260
4078 22696 -939
11613 12143 6984
10865 9591 25152
30893 29569 8383
4579 13081 -1614
28396 6001 -2797
2074 26832 -2475
15741 17615 -2868
14656 3442 -1619
1481 6865 -2292
12084 18626 19131
30642 10346 18410
31839 28494 18373
13802 10376 2936
14195 1090 -1342
4053 36465 29757
17768 13825 -485
24536 34329 -510
29804 32006 -3045
23618 33759 28549
29188 22385 -2427
35143 20184 17310
26562 28882 35184
6427 24300 -1552
1927 31925 -772
29023 31824 23275
9104 8804 32523
32638 3547 405
12379 23447 -2353
23411 31051 -292
5210 13888 -184
30693 315 -223
27625 14321 -3000
12115 28480 30305
29006 7485 19662
19340 14702 36033
16500 24914 1689
18364 22041 36042
21959 15063 -3263
32988 32393 -262
12649 14919 -1436
19635 5983 27607
26048 22679 -3574
24259 29903 -2291
31879 7188 26653
14924 9687 -772
22823 207 32252
32164 23753 30675
16593 31683 25690
24651 2881 30751
7352 30551 3304
24865 22006 -910
22632 20614 -1806
30389 12987 -1286
33718 17730 -3220
36136 11322 28757
18152 28642 13182
28053 22782 -7
11123 26340 20261
14583 26737 -535
37083 24379 10339
4376 29270 10711
4503 7673 -1442
1128 16612 36804
3253 9076 -516
12181 15305 24812
17374 12680 -2347
28106 1595 -1049
21809 19231 7176
35799 22007 -1226
27544 5540 25460
17980 8200 -1265
26425 28545 2939
4470 21441 30397
25525 16663 14168
27399 34503 -288
24982 19258 -2700
28951 17553 -2353
31678 31382 30827
3560 23175 -31
32260 20709 -581
1437 26149 -3291
4952 22700 -3390
36250 20721 10176
28108 29428 -2751
18302 5305 -1730
22669 5849 7596
30575 5235 393
12794 733 -1016
11372 18432 -1113
918 13411 8871
12285 36435 28932
31208 12902 -1035
10474 22664 -2456
13629 9710 -489
2469 32469 25374
15046 25550 27272
28766 1654 22384
22775 35304 -994
25190 5241 10374
26609 23867 -2382
22708 9535 -2012
21685 22432 15088
28376 24726 25550
10084 33371 28934
12345 1121 2864
28282 29695 -3628
14210 13062 36196
9482 33832 -2724
24359 32427 -1727
11880 15951 1309
11523 18728 -392
9581 26067 11413
22315 35238 -946
19238 5735 -3031
31014 7700 16037
21622 30985 28842
10129 19206 3580
15050 29500 -915
16778 12178 16172
21463 32754 -1062
15820 23425 -2718
11130 31107 -3294
19870 32796 -670
35451 4925 -469
7738 17365 -3110
36342 35308 37412
28450 33332 -2040
32560 27473 32978
21619 13712 16769
26899 33917 22801
6583 8569 35599
32920 36489 -3406
34768 19140 -3063
25690 537 -889
27050 2625 28184
30739 10122 24007
16936 9821 28505
18777 2739 22702
5059 35307 -2552
2930 2575 -2128
13068 8405 6746
20703 35622 -3295
20352 9150 -611
3413 29046 -1527
8522 3741 7281
6834 26383 37213
6269 2742 -3341
26351 25139 13473
5997 7612 25171
31109 21965 27859
6649 14305 -768
18845 7542 1218
21306 5929 11167
37427 17445 32987
36312 35705 21967
29134 27476 -3586
4 4409 14582
10283 23740 36298
35860 24341 -1787
34401 16084 15384
25385 20924 -2164
16803 23493 -1863
15601 21284 16480
15221 34118 4409
13400 7651 17684
24710 12775 -453
20820 29928 3091
1500 21917 -2173
35388 637 14898
20039 19527 7935
37248 28641 -2086
28476 36361 16124
30463 23373 35133
36446 34674 -1043
25072 12825 21900
23301 35927 -1748
27894 2760 18451
31829 30343 -2628
21613 37442 7489
20312 24743 -1031
1199 31405 8082
23250 26442 -3663
33958 17638 34887
26399 18247 -3444
36749 8439 -1479
34257 20337 5918
36652 10187 10978
2162 27380 -3596
32647 31583 -511
10743 34089 28147
36936 33534 5927
31659 36104 -2000
1903 7584 15915
12797 24902 -487
6431 16358 -2798
30535 26587 -3578
33339 24150 5641
34383 36266 -1466
12523 25158 33272
24645 8445 29770
22851 10740 -420
18384 14984 -3279
20496 12561 -2278
35230 26269 34614
28463 4270 -1767
17878 12566 30405
16677 2237 13570
10138 7049 -3314
3064 14152 -3240
26007 28505 -1366
25590 33871 -2719
29038 1014 26306
34883 25374 7226
13450 7329 -104
469 13007 8554
34890 5650 -3257
5832 18185 25807
31575 24108 13822
27836 30667 -1361
924 899 -745
9079 36231 -3560
24631 13610 -248
1281 32899 29662
29641 10309 -790
5017 33010 -2798
8406 25097 26607
12493 5182 30532
4870 35063 2117
21053 23424 624
3791 9393 -839
9705 5114 11859
36716 27979 -2934
7349 13357 -201
10792 8995 33979
5772 1248 -201
7823 8132 36864
26282 35229 -1344
11388 33300 -1256
20347 34174 33568
269 8317 10625
13089 8508 -915
10017 16610 -1535
27751 31436 -2475
36627 10817 2383
37088 5277 -3492
37383 28008 32810
6547 28135 1665
30422 4223 26944
26526 15778 30135
29422 17551 36194
6148 23254 25931
34047 31207 26945
33529 4742 2355
4159 14398 -3274
26756 13777 -1973
36699 34607 25015
35906 15595 -2081
15435 16749 35009
14503 10643 30041
32397 34920 -3386
18221 25006 36578
34180 23315 16190
11142 24569 10906
28021 28944 -2035
1950 3793 -2567
36914 34876 -1786
29075 25907 25176
19138 8072 -2869
14052 28817 26841
11602 12569 32303
12284 10677 -3308
36503 25475 -962
22041 29276 7808
29935 7729 -1630
18093 26286 -932
27525 7293 -3070
4931 26997 33122
34511 35674 1797
36377 2642 -2273
17807 4113 28516
5450 22792 3314
5606 35779 -611
4753 19410 -2106
19594 22515 14796
14097 4151 15671
3086 34749 -3119
11584 35421 -1302
6911 26084 35623
30910 18745 14867
20191 12558 4785
25943 16261 23416
25550 9682 5440
16634 30077 33193
13788 27204 685
20177 32518 -1963
15973 656 5929
3469 19990 22765
15719 18127 -2778
3193 18033 -2035
32265 14061 35393
20157 11772 -1715
4506 15114 30732
25343 27731 20366
25683 22861 17739
5758 1721 2439
7506 8492 3085
4001 5126 18733
15481 34401 -1912
29003 36951 -2045
4930 23231 30211
34897 24688 13798
6270 12891 624
25186 21023 32210
28417 16075 5703
7896 23180 -1056
8448 21823 -2943
27660 24116 -3569
5744 22921 7572
21442 33301 -1039
21586 26612 -426
20576 10510 -2036
9621 3454 -507
30919 20726 15722
14168 37476 8102
5292 28516 34772
32904 22103 28494
34941 29643 -2823
18609 25300 1155
6328 11787 -983
32581 15715 25047
28341 27358 34936
24167 36447 15650
2766 15785 2010
24904 8891 22387
6894 27134 16634
32492 36050 33678
34305 26559 8517
15128 27987 5864
1506 2570 -1479
6108 5497 7801
1295 3121 -251
12582 23490 2411
10716 14365 18979
11657 5432 -1755
30385 15176 -1199
11490 5546 -3264
9682 23821 -66
31485 15389 -3433
9590 33661 37257
2304 28565 -119
34255 32274 -3099
31824 5747 -362
6081 26744 -3669
23957 8086 -2310
35497 20520 -942
31618 7170 10658
22959 17350 -2233
16228 5585 -801
7820 9614 19123
11862 158 -820
24082 18962 21964
26479 5833 10157
15688 24057 -928
17631 30003 5385
10673 31944 33914
1275 19898 -1646
21606 35230 -2797
20413 18048 -2239
19338 3719 -2298
34659 8337 -2027
3422 24044 -2481
22596 16316 -2046
7868 7206 28323
31631 9772 31813
37036 12195 -1333
1527 23930 -2840
311 621 -3123
25629 9016 35762
674 18550 -457
8297 3841 -1462
26838 26093 -1633
28463 29173 -914
24541 14792 -145
21438 20437 9054
27892 25397 3773
6216 22579 32841
6463 33847 36351
13665 27968 11326
23475 17141 -3423
21676 2820 -1545
29706 3610 5755
29959 18547 -206
8454 17083 16133
21972 36160 4122
8220 3141 -849
6157 21522 -1908
26342 20752 -2550
3066 2076 23864
1425 29932 -2079
11776 16544 -2358
11035 23975 35345
26323 9410 30029
36636 20750 -2151
33148 1336 31803
17961 26797 -3029
33848 12308 -1678
35093 5246 -2316
2545 14849 35177
25238 22090 30856
17618 15338 1971
3925 24512 14135
19473 11079 21860
13378 32564 32331
20374 18426 118
11638 7342 -1449
12304 10084 -2946
15553 28528 -1986
5381 9724 35241
29526 33540 -3331
31807 19807 -3246
37100 23575 -652
12076 36260 -3390
15054 34465 2294
19252 24715 28226
4654 29681 -2581
22405 4371 21379
3505 26668 -1894
18418 13472 15119
20276 32571 -1771
19647 29019 -1490
24398 15054 -1564
29958 4854 19198
2199 5576 -1253
20399 29765 16045
10887 8369 -639
29607 9765 -1709
13396 7817 -1186
18787 20698 11779
36559 37464 -3509
33648 32301 33842
36040 25715 36472
18536 23821 -3538
3656 22895 -1322
15069 19303 -3472
33062 3238 -2226
28110 32353 11926
9302 3090 22514
27641 33205 28534
1744 20381 27196
28194 36649 26921
36076 27947 -2807
28380 37210 -59
15278 3044 19818
35568 6647 -3193
9996 16207 -3341
22952 4501 -508
8539 35402 28004
13435 29899 29557
34483 19684 -432
4066 14396 -1163
3451 26985 -923
30676 20455 -1054
33764 31861 -1494
15932 14980 -602
152 31738 1497
30844 19250 -2072
5827 19046 -2288
202 18203 2863
12315 6993 -1993
2091 18158 15368
1852 8929 8787
5900 30620 -1728
32794 34671 -26
19488 20257 -3527
15108 12585 -2362
27844 14366 21854
35179 11908 27035
4134 7742 25375
8298 3570 -3716
28399 13582 25332
16017 20124 -2533
27923 5696 -31
1260 18646 -1359
25091 19094 29998
24636 25099 6587
11465 2389 24474
34443 3411 3580
20526 30925 22668
24824 26470 -1421
25994 13832 -3285
10300 14400 -812
16171 16617 -2729
18751 22756 -3441
16313 18955 -13
6414 4760 -719
33395 25758 -2974
8301 23039 -2412
13304 6116 11247
32215 29565 13059
36948 27309 4562
29361 31263 30565
33208 9830 -424
31988 28579 34013
14083 23805 19542
26862 27277 22164
8071 5658 -656
18544 35361 13916
32017 607 -2659
9389 22538 33396
28940 8905 -1261
30514 1839 25118
18380 26864 27192
12486 31974 33624
6103 12177 -792
22070 368 2701
33292 28198 -1955
24223 16835 12867
18925 36644 -882
34417 36656 27707
23239 17221 -2586
15621 32122 -2824
11549 4554 -2312
4508 1126 -1148
37362 32629 22758
34652 11078 18230
31573 23621 -3747
16750 26995 13528
13562 27245 13650
2693 24246 202
22414 7156 27599
10888 1947 14133
11625 12211 27881
17622 26230 -692
28019 4623 -1099
17873 30202 21071
22702 33628 -1594
27400 19270 2614
14551 25075 -2000
8533 14033 -854
18871 5621 7679
6110 9124 27967
29536 33216 -2951
27979 9136 -2072
31602 6896 -2648
19340 7648 5248
9138 4328 22828
21133 11631 -394
21478 26649 34387
3577 13745 29150
8771 29406 35968
32812 20818 -1906
31406 12325 -1534
2510 34753 7220
32881 28190 14546
35965 3417 25052
17631 24164 15067
34903 29317 32093
17440 18691 -2090
15503 36480 34018
21956 33017 22556
8761 4690 -870
33106 34527 9006
6613 13545 -882
12331 8295 1733
8087 36476 -3722
26862 7360 -3598
13887 13496 -1129
7424 22272 29980
2741 11548 -3414
32601 25003 11106
28328 21406 12983
30295 34840 -2227
11816 28433 -244
30860 15559 20621
20117 31174 -3693
7604 164 -1655
28484 15740 34463
11534 25697 21080
15487 28560 -1936
35378 27730 -1899
5377 36971 36039
30766 31892 -1164
867 23237 10812
5254 4517 -1762
26050 22167 31851
3236 12391 32599
26703 5924 -2487
36576 18012 35599
1903 16844 36897
7214 444 -292
4243 15471 -2722
18036 36320 -2171
807 31092 -624
18090 4106 15486
26431 17291 35840
25648 23224 29146
6155 8764 -872
25960 27446 13261
14699 14370 -185
10487 17606 24638
15839 28626 -1513
15559 33779 36894
12573 27091 4112
22759 10535 27420
29900 34675 27277
33292 36636 -2507
18274 26847 -1803
30898 16689 -1745
26182 36989 -3331
35916 15197 -1698
29605 3657 -2137
16814 32974 -3274
5840 1275 35798
2657 27498 20761
25643 26526 29333
32040 14855 -2773
26362 1063 3696
8107 7153 -2676
13682 20021 -1218
21459 27830 -2296
22965 18742 -2886
27257 19429 26416
27818 1379 20720
22049 23134 -2043
34080 10092 -3503
18170 15169 -26
16230 11838 -2181
29348 19556 -1457
33349 34202 -30
16764 28922 26946
5104 18539 -604
9387 34321 -1181
4747 3061 -1323
15341 29511 18128
23241 9948 13127
325 20611 -2481
21144 31953 -1894
13416 11969 11180
20303 25912 -3415
31925 7780 20422
16847 27717 16214
1621 7362 14041
10908 1033 31386
31254 20474 23801
26615 6079 -2373
34157 35738 21600
13470 19723 -355
30462 8119 10715
5812 6888 -2058
4487 27246 -1738
21791 29457 -3579
12108 15497 -1220
3551 1376 -358
7417 17918 -787
2433 17805 35627
25042 5115 36251
10625 11108 21680
19477 36010 16612
18030 30295 5252
13593 7114 -383
11403 28206 -1418
13974 8713 32832
14126 6826 -2317
21566 20674 16907
9882 15329 7794
21491 10129 13962
3774 4470 19572
10598 36567 -835
17644 10410 16216
11565 35899 -482
4794 37364 -70
15555 30950 19543
18784 28348 -1538
9183 2002 2774
29975 1054 9852
13926 11003 -3294
27923 11002 -804
9909 29182 1023
30615 34389 16533
22447 8507 -1414
14357 30518 -1952
20694 1664 -2135
23220 7247 -1728
36344 25605 33005
33895 25281 -1205
12976 16991 26286
22813 4432 -1814
31520 28468 26567
2325 27133 36703
31399 18470 -2923
26520 21315 31646
9063 17652 2615
25758 8019 -3571
15571 11338 29672
13645 3872 22782
9470 34302 -103
4038 2822 20299
16689 14745 33816
7787 22956 24703
35153 3529 -2208
21602 32860 35266
27565 14029 24979
8129 32505 27743
14896 19302 -2742
2965 25075 -1301
9636 23337 25096
19043 6247 29992
33084 26688 -1760
12760 164 4313
29993 23066 -2783
10922 4293 27188
1170 7429 -2377
21173 10482 -860
34388 15292 -422
32696 15022 -3064
23809 11058 36409
22215 2957 867
12175 28994 -956
31787 19523 13168
8397 37408 16256
26623 5254 21501
31579 27950 34289
29755 17747 914
27375 10290 5608
37489 36252 29425
508 29002 -1622
1946 3847 30676
9495 1623 33901
27883 34571 18814
32066 29496 9182
31148 32363 -2384
7931 34230 -2890
5596 17170 2709
4182 22521 -156
11578 12361 -2855
4163 19778 31161
4722 34591 -1790
21301 30593 14991
4644 9544 -2211
1604 29730 -2148
19640 14666 -2240
20068 1414 -888
16933 3848 8478
1056 11377 6089
18986 26179 -1579
21134 10757 7869
10883 31177 -2835
9505 30503 32876
16705 30181 12528
16202 33871 19942
27639 280 32933
2754 1398 26565
20942 15465 12090
371 15759 21164
33854 2573 -2617
19115 36919 -75
22891 20825 22353
28525 7753 18551
17067 32060 -944
26521 36189 33947
8942 27223 -376
28138 1842 -2648
11425 14239 34898
11803 30028 -826
1317 10358 3137
14445 33534 -3405
16059 14394 -1240
19227 6092 -1989
6699 20472 -1214
27100 6021 32403
2938 22917 -2109
31337 11163 -751
21724 7900 10551
24490 33541 35744
16319 1779 31870
30024 21993 24808
9641 20670 12100
20269 4178 1126
4078 7319 17092
7347 25117 -569
17904 2107 27867
16578 25000 10635
3552 21113 2337
32723 7204 20094
24275 26238 12830
29006 8287 -1101
19176 6562 26502
36012 16356 -3288
31742 17511 7339
13007 34174 12756
25911 13345 28366
4188 21515 35182
20659 21205 1894
4132 18608 26484
13394 21673 -464
33409 16235 -3039
32423 11920 7178
10785 19534 -387
22390 14745 -2263
19693 6517 -3609
22991 24102 16448
1991 10724 7825
34898 27343 -893
17743 13713 36157
30898 14015 7434
28224 17275 -370
29892 21305 30274
2567 13870 -1272
13052 29369 -1537
17371 17908 28263
18170 28350 -1575
27192 17825 -542
3220 16699 14780
36318 24651 -3567
29516 17909 -1765
23854 7459 29910
12711 4226 -1873
10320 630 21538
4271 9604 6885
36509 704 -2134
30662 1524 30236
2657 24341 27983
271 34244 -914
2599 10671 -1673
22281 29662 5775
35926 28086 -1710
26945 34152 -63
45 20475 3919
4039 27274 -3014
8833 7426 24396
19334 12784 13209
6170 12392 25095
20876 36598 -465
18013 9470 18442
21310 15816 -1430
12325 26905 24307
26343 28758 -568
14048 26482 -287
2282 25342 -3447
16536 553 -2463
31599 34627 -2369
15680 33444 29135
11463 27933 -1513
4945 16367 -914
37244 22410 -2925
25292 25458 15771
6678 29680 -3468
25027 24024 20216
3281 11189 -3001
27188 20840 22641
18219 11933 -1932
21279 86 15881
36710 34643 -220
24402 24370 28848
12160 7445 -1461
4342 32956 9627
2732 5298 972
31059 29663 17226
2119 36999 21207
21080 14665 7923
19894 14595 -2435
33793 5700 -1277
8533 895 -3650
15777 25117 -1537
7980 13224 -3064
35822 17962 -3277
24987 2759 10051
13616 9695 3823
22101 2202 -909
35940 36224 15276
37255 32035 25164
6330 29852 -186
17979 5646 -722
15618 33778 36006
24138 36168 25363
1375 34870 -130
12101 10306 -985
6909 28632 -1736
32877 19484 27729
26552 36128 -774
3139 11660 -2039
18579 26276 7695
21012 29410 -3106
36209 29545 12507
1584 17991 12447
31094 959 -603
30043 27810 12899
35434 5785 -243
3094 16863 -1061
2837 12068 27672
16189 5751 9615
19550 8909 -1362
17081 13738 36813
6696 19864 12014
17013 10325 -630
20490 33626 13541
18369 17678 27852
4117 36728 23379
1594 33315 -825
32248 15208 36697
35844 30074 174
6325 3700 10153
10452 17253 -576
3773 28096 6733
2455 28057 -1765
17373 9271 33505
9948 20596 -1560
982 30708 -1781
26694 37291 -1137
31083 22480 25648
396 7800 -1061
2497 8871 -2449
39 4985 -2996
33005 15330 6864
7633 17821 -1817
16077 23895 11590
10356 21265 34326
16150 35009 -393
20917 30059 -3215
10499 35019 -1321
30311 19334 19
11654 34014 27536
6055 9193 24151
28391 15264 -2919
676 18528 7935
2689 19271 -2785
33955 4300 -1730
35736 31134 -1610
7041 2399 -649
10238 21737 14388
11483 8222 34532
8398 25314 -2419
9577 6224 -1988
6892 22151 28474
11515 167 -1604
25096 33547 36088
18977 19790 12706
19047 24602 21942
28727 1238 29642
24452 35459 -1050
6211 29518 -999
5526 30276 -1842
19127 10051 15982
7548 18795 -3622
4072 36888 -216
2408 36356 -2267
30628 32792 -722
34820 29354 1342
33667 22929 -2519
3702 20753 -2549
18025 31482 39
21634 13486 -1379
17764 21700 36229
37176 25971 -1899
9552 18702 -83
34718 7062 -155
22333 19687 25253
27859 14653 -1708
11242 1927 -725
26468 34103 1460
27818 12306 22292
18839 11233 27435
12880 4286 10241
33736 4282 16147
2678 37408 19099
28771 16674 -3592
10189 21057 -2248
15324 31924 -425
23288 35762 36786
6897 24642 31100
19201 27203 31648
938 32406 -658
4353 21170 5856
33738 22369 -790
13676 33801 23808
36228 5044 11135
30741 26413 24828
7782 29074 -1598
32202 10195 -617
34803 25109 -2127
13559 17277 9474
24953 9146 -2032
12681 12806 31251
33407 23095 -779
7217 16969 23580
28319 17320 -1841
26533 8996 16227
3776 19023 -3228
29627 4209 27145
32156 28764 -3721
29746 15 -1327
25622 7006 -2927
9857 23545 -2920
17723 15613 -1641
2283 9368 4405
3226 9535 -3262
29323 15912 23292
20018 18653 11990
24316 28978 10173
18982 853 -2390
19754 32076 17677
30540 24620 1484
36261 3428 -281
1988 10204 -506
36549 18325 14838
24555 29968 -1526
26398 6804 34562
21281 16324 -3553
5482 11571 5709
3900 17624 -430
21695 10386 -3444
28778 3422 18448
22170 18080 -2398
22977 32555 -866
22264 28074 10826
4063 16763 3798
19507 30874 1151
22552 21593 33549
16682 31755 9403
21158 34779 15195
1231 2907 -1366
9893 11862 35397
9071 9141 23851
3143 17168 -3271
18734 19437 14750
3153 33341 9410
29525 14678 28333
14179 23573 -2085
34726 26285 7971
36827 26060 -1462
1104 36814 27124
13393 10541 -827
32199 13840 23380
29953 10565 31220
30631 19213 20355
17857 13406 -2773
27719 24589 22761
31912 29163 -134
36910 21331 27886
18104 7798 35312
13583 5030 -977
22589 23853 10073
202 24223 -3214
4062 3029 -1733
21620 29606 2714
18883 14029 33867
29961 25066 19365
9433 24748 -3694
16827 33812 -854
20184 18652 29339
29644 7260 32281
6457 3554 31990
6509 33383 -1363
21557 8196 24487
33995 9867 -1401
35916 26140 -1748
35035 35101 12623
24220 9295 21593
31441 34597 30088
25334 12429 15631
14066 28936 1886
29336 5962 -2968
22105 383 1095
35074 12093 16515
20671 32584 30951
29501 625 -1719
30484 52 -2205
11655 20968 21890
3341 28202 13975
238 29783 -111
34233 30664 -447
12889 19299 -1698
24492 33624 37226
15759 6050 -3462
20772 34337 31625
12386 28856 -1882
13444 35848 -2739
16099 22960 -2489
15312 28996 -827
31551 12928 30011
35070 27191 -2630
19034 33764 -1886
14559 23600 -983
7092 32150 926
33724 508 -2185
31056 21033 -869
36830 1331 -1432
1028 25685 -3549
35009 23562 35089
14816 25482 -2904
27058 11548 5730
29930 28515 18542
37178 17068 35683
15302 23134 -2761
32112 21390 -3749
17802 7571 31279
18258 11868 20175
32984 5287 32316
20654 7001 -2765
6890 15719 -983
32591 8572 -1783
17380 31939 20921
4760 9853 3345
15516 32974 2976
34149 23972 -1022
17075 2917 32295
15568 1236 -891
24748 23854 -600
4210 15789 -3282
14717 825 3812
821 14800 1565
7515 15956 -448
4787 26519 -1123
12794 5444 -1688
28317 25198 -1081
26571 11167 -3702
32456 10200 -2549
16012 33701 19811
29493 22995 17489
20011 15346 -1123
28288 30122 19741
27789 30824 -173
27689 2989 16413
2776 13777 -1024
3010 11491 15962
22859 4729 2245
8821 21626 -834
17517 27878 36584
36528 26758 -2866
13814 35118 -372
20184 34419 -2932
13152 3542 -1368
7494 12630 -2102
28966 26388 -2142
20424 6540 -2816
34444 2542 30191
29490 24827 -895
3397 7718 -2173
9557 17641 -885
8290 36681 -3586
29830 16897 27122
29995 537 6790
5952 17573 7545
3507 1160 31654
989 7303 -2170
11584 18388 -2844
25586 30207 10196
28966 28993 -320
34737 14288 8957
4703 19928 -2712
33306 33412 5843
30859 31219 32412
7071 10247 -3480
17339 20908 12380
10166 28616 -1604
11610 31882 -1566
1535 8521 -2038
33176 36439 12548
22020 24003 -1634
20860 2936 10112
7654 2353 15195
33940 35194 -2067
17968 8380 16109
24434 29342 -653
30179 29761 -2063
9248 4302 -1430
3863 20716 -424
26549 20212 -789
20404 14508 -431
30055 31367 -3601
17574 2212 -752
10827 315 -1660
13730 21274 -1732
26395 16317 -2194
31459 22211 -4
14857 13271 -3329
2912 26594 23464
11661 26427 -1829
27496 19874 35706
32495 12628 -1220
19399 23197 -1778
26044 27913 -980
25627 37128 -302
21043 14498 -2427
36234 19329 -2482
11967 9830 -1390
16377 26603 22922
26790 29574 1628
13436 10783 35473
12950 29453 16423
37078 37015 -2784
35657 8902 23075
19866 6323 31358
29755 34138 -2125
3688 28248 5194
17584 19809 25654
23571 34944 17704
9195 36013 24507
28335 13212 -1639
20264 9848 24194
4633 20037 8660
24934 35424 5638
12987 1593 33815
16456 26446 -1102
31252 8409 -1964
386 6441 3418
17625 26996 35786
35402 13635 37227
34097 8913 26435
12905 4873 32275
13057 3290 -600
22680 26691 7889
31401 9823 29771
16071 34591 8723
17183 34415 1071
20164 10348 -1969
34695 4057 32561
2060 28962 -2415
20602 18522 -1336
19389 30373 -2134
16060 37059 15360
6688 18513 -3516
24329 37066 -2802
53 28852 37432
12015 15244 -2051
5715 35772 4567
33743 22543 -3443
22399 21435 16266
33719 9037 10640
24731 28669 20950
5254 30592 -3618
30289 30658 -712
30490 673 -518
36519 37353 -2448
7046 7899 20540
32486 6644 37106
28462 4357 18374
17973 10073 11406
31654 2696 10359
16524 17021 4155
13017 7701 1694
8791 14475 22139
11701 2710 -1155
25693 20632 -2509
18820 19804 -407
27204 19800 35038
17777 7005 -1367
17042 21702 28192
26125 30395 37319
26319 15597 -2300
24450 13567 -332
22285 35009 -2650
3920 10883 -62
21222 29601 11849
29364 34118 17456
29674 18796 -1161
30490 4466 15604
15944 34551 -293
22933 27596 -3323
11848 32582 6853
3449 28154 -1921
35936 33656 -2235
28237 19758 21528
32558 28871 4652
30315 10717 6493
27492 25135 12308
30806 20095 -3541
29782 4477 34663
11140 25882 -1554
4853 779 -2275
20246 25801 -3450
754 2573 20118
7294 24613 -2290
25496 17330 31896
11075 15281 -579
30725 19451 33296
9819 33957 24717
34002 22327 -238
34517 29099 21136
16010 21808 9269
16954 8765 27593
11670 13503 -351
23599 20164 -908
29309 7767 19886
17491 28656 8781
23940 2816 -1525
35362 34493 -2033
2862 13774 -2891
1498 17305 26043
13361 33047 -493
6322 19674 -1154
9273 26265 13012
7824 11481 10740
34508 7236 11455
33249 15152 21720
27542 2430 16296
34689 1079 6259
316 7275 7269
26821 1005 -328
18931 19362 28722
22996 5800 -1177
32969 20966 24707
4740 4256 19209
34590 20873 22318
21248 1276 -1024
24899 7624 17618
5268 4332 19148
14118 4302 -2319
19142 32584 36444
34164 7234 7702
21447 17326 -2228
28684 11061 -168
31413 13247 -3723
14816 9762 -2205
20973 26041 -3245
25031 22462 -983
31211 27320 15612
23067 23985 29105
22052 20106 31733
26025 27480 -2244
3254 6253 18386
27100 3761 36619
26218 15665 10301
33568 12312 -930
29564 15135 -3720
19415 3516 -745
21700 2552 -2209
20915 18515 34127
20193 17259 -2825
37021 6538 -575
1787 34924 -1904
32303 34037 -1105
10698 16923 27280
9232 30857 -2911
2135 12229 -1467
13542 7300 24831
16987 8130 -397
31006 10452 -2360
31943 9636 19819
33145 19933 8633
2376 20983 3789
18513 6756 575
13099 24504 15319
29873 7376 -378
11120 33299 18018
35109 25787 34304
33795 12414 12096
27046 574 10150
18797 35865 13778
24895 23340 -843
27100 3108 34527
27837 21191 3170
14999 12918 1176
17532 34120 -1086
20335 28646 21088
28489 17900 -888
12444 605 -2538
22109 11101 31958
26146 8594 -2018
30820 17165 34063
17649 13910 2538
35881 25886 -1967
23485 28363 31523
16913 10946 22341
69 19171 16365
5116 32722 -1101
33581 1638 27804
2898 4623 -3163
18164 25928 -1998
20871 35326 -1825
15581 22769 4210
23093 31714 24651
580 16735 -2295
31919 4985 36414
20508 4338 -2265
19530 34899 -3393
11112 29766 -777
32579 17484 -819
30433 33557 3553
15048 13502 33949
28565 25230 28214
34991 31640 10674
570 2520 -3482
12900 23098 20325
19556 17852 -458
14922 15032 -3453
27489 4131 3897
1197 6633 -2528
14435 22869 12180
35336 19535 17861
32266 16344 -1045
26242 23985 33907
9986 12252 20447
25514 15152 -549
17812 25875 -742
34603 25482 37363
17045 26419 -2688
2302 27319 29695
7191 17235 3433
14192 29878 30761
17922 24287 -1813
6257 31367 -3054
13924 7437 -1116
17653 28009 1596
4776 26496 12033
20731 23802 -1772
31299 33477 13455
22425 17418 -3194
21006 26797 -3516
10571 27499 -357
7468 3264 10239
16034 19174 -1239
29514 16935 28948
20887 2003 29349
1228 31545 28193
33495 32072 33233
8505 19988 -1419
7800 8912 31395
12579 35379 2825
15420 9010 -2816
19580 8803 -438
23619 29704 13461
20907 34296 -1530
34319 8159 33999
30283 16910 15215
14703 11963 35888
5530 35357 19313
5650 34612 -1033
14082 15474 22687
7551 23017 6763
14604 22228 -645
9833 32733 33701
32680 17182 29821
9930 34172 4861
28710 16381 -1635
33783 23383 13985
36313 27046 -3641
30481 29539 -3217
17801 17316 -830
3153 25297 26330
24563 13110 3644
4454 6133 -1733
34782 14480 27844
11100 25006 -2826
12137 18479 12567
15139 372 3805
22770 36997 24459
31730 21852 5988
35939 4242 14307
409 7140 4506
30510 32093 -1181
23450 35026 -1353
19064 36292 14482
55 24238 -3327
480 1180 17545
767 16127 -2195
8039 26052 -619
16471 19301 -3058
18227 6943 22642
17606 26168 -2906
17309 27681 -2738
24708 25043 13633
31184 13831 5724
28981 26395 18742
26114 10823 18052
21904 8291 -1936
8133 27520 27466
6512 6633 -2295
10676 23746 7902
14998 2025 21129
34874 12565 -1852
9832 9099 -204
32838 17530 19857
25112 1209 6595
18207 9518 15516
35477 34967 36656
30667 3014 364
13150 18517 -1375
20880 29115 13278
28585 35705 -1393
1290 32087 1926
367 16643 -2062
20654 10282 11287
9412 11613 21525
19831 2070 35204
4658 13524 -2989
4448 26393 -1568
940 32516 -28
7524 4422 -1601
8921 20396 -136
14575 36852 -603
27730 8619 -269
14578 35647 18377
17944 9151 7703
30775 25459 27648
4314 10263 15086
13831 9498 -3159
12053 26435 -382
24343 32892 19434
9828 35446 8086
18677 23793 -3433
26458 4560 -3660
25528 23150 29824
30444 5788 28870
9861 34234 -1671
3547 14315 -2465
23932 8297 4287
36451 14468 -846
6156 33126 20466
15970 13893 15088
21595 24649 7765
5736 14627 -1128
8198 35565 -506
33864 23904 17471
3834 7875 -126
11829 21283 17960
14858 17717 810
8226 29855 -1679
28588 18719 -1194
15537 19418 4472
11170 31813 36567
23916 13932 4632
33395 1913 -1841
25268 24150 35832
5707 37102 -1130
14174 26946 -668
36208 3064 19679
33273 29517 2802
27915 3956 -795
6355 26768 10384
3237 6574 -1443
27843 33431 -2665
24808 25505 -1907
34443 30743 36693
35214 2507 -2178
15002 11621 7304
8568 25795 786
10127 13146 -3322
2439 1802 3855
33997 17551 34177
9069 37310 12402
1896 21785 -2973
16161 23410 11013
27872 25554 -393
10336 30333 -1020
35517 15069 -505
30785 9082 20123
37104 17557 30810
10795 22373 27637
23118 8381 5126
250 5412 12227
6882 21764 -1137
35053 30025 -2598
16287 13599 -1808
13014 29422 5846
25580 16004 20383
20802 35625 31990
29561 11268 13568
24416 36883 -1679
33200 36824 1987
3600 9128 7531
32382 8830 -3482
33083 10323 -1869
37408 34645 -2938
15257 24039 3357
29164 17350 -1667
1822 32991 15798
16642 22220 -2850
19764 31489 17896
32360 4060 20938
15291 14464 4447
1842 28400 -230
18268 9597 -1104
1468 5307 31655
21262 24245 -1345
7331 23529 -2032
4689 34012 -867
22419 25508 -3505
25240 21482 33618
33913 26429 10800
27211 14944 1567
23603 19351 29398
36871 6359 -2789
16459 621 -1341
14926 27970 -2548
14916 30824 2314
21171 22389 -1585
6401 21568 -89
17072 35465 19009
31610 18745 -981
6926 27940 -1139
13254 12291 32235
7308 10205 -948
27658 14967 4555
4889 2360 -3152
10515 36882 15869
1694 31847 33403
21568 12084 -920
23408 36137 -3080
4754 22178 -572
8143 34941 25638
34639 18545 14948
29288 21880 -2564
4186 32095 -103
21565 15394 12809
2873 5882 22272
15806 17791 -3512
31245 7602 -2297
1292 30723 23993
27144 34263 -253
12339 7029 -3127
16968 22907 -2127
5890 29985 -2919
8558 35167 -3206
34465 26151 -2178
34343 4663 20952
15379 8943 -786
11457 30622 -3525
4991 20452 -1006
7307 29479 -1398
6075 36488 -2587
31960 35357 -40
34445 10972 -987
11895 28778 -2099
22950 28940 -2864
4913 18584 -2467
29064 5879 -1747
34631 35186 32686
5582 2229 -1254
10766 17659 -3338
1361 16783 32429
21818 22831 -3175
20260 20335 -3211
10033 7010 17426
14884 25326 -568
9673 6940 26430
9485 6008 21044
37375 6670 -1048
33892 2685 31686
7832 4771 29580
35569 19767 -434
5821 17079 9183
1075 17878 31486
13799 28072 26250
25531 12852 -1243
30519 17722 -595
15871 13112 -1021
23569 14852 15564
10973 29870 -3691
21834 28887 29935
24442 33838 -3547
5923 11861 -3448
2904 8369 -1861
20433 33832 35796
5658 20240 8597
13713 12584 -869
20262 22349 600
11368 24717 16052
20336 5580 -1406
3459 12686 -1373
32803 6402 -279
836 19824 31830
23335 19871 -2489
23600 1578 5048
24452 30160 6521
6095 34503 21975
4892 1587 -930
31996 23054 35259
6886 25577 -553
30157 3136 4997
11108 4820 -1974
29369 31103 -388
28138 28264 759
7541 12271 -3492
36350 27772 17618
31058 36979 7293
30585 36171 -1156
33556 23640 -150
29374 36752 12593
5881 27602 33310
32919 5410 -251
28259 11541 -1414
16858 1508 -2907
10163 24918 -1983
12247 8605 -2453
25991 7296 -2855
21711 2123 -2690
8777 3112 1126
14680 32927 -76
26922 27518 -1995
13313 20349 6698
5225 17002 -690
28368 36405 -12
14588 4054 7268
12733 31339 34759
13734 24514 -291
16389 19473 -3674
11071 2696 30952
18429 3382 -968
23481 11777 -454
36328 21500 -1881
12140 3370 31103
15701 23524 -3527
18633 947 33146
29163 12001 -977
14847 17292 4421
23273 21131 -124
30465 24773 -281
31190 28162 -1210
3063 11985 -2591
17998 27326 -2803
27466 21993 30300
12711 36467 -199
17731 23694 7789
29025 35985 -2727
30586 35842 -767
21935 8519 -1478
23051 20425 -134
26347 36809 -336
2287 25506 -773
34763 12426 -1128
26984 22931 -2589
14958 33251 4488
183 22663 34204
18186 8026 18122
7581 36427 -2576
30939 18776 3316
14728 36881 -458
34643 27274 23717
2904 911 21972
2465 12775 -918
10907 15171 -3685
28992 1110 -1112
28384 28511 -86
14664 9823 10241
33716 26703 -489
30661 18831 34199
8818 29283 -957
4979 15650 4760
12694 21603 -1551
30728 25796 -2795
14443 21877 26672
23052 25830 15155
2 30226 -2706
26485 14606 -1400
3842 1015 -1423
26622 4603 -2963
11857 18381 -2930
31896 7200 33848
31400 815 -1885
16798 11961 -1387
636 12015 29916
12380 37077 24341
25374 9739 9792
9317 33729 -3546
1059 34268 -3472
16820 28994 9612
17809 5294 30294
6535 32546 -3596
9331 25785 32440
23124 31129 19149
5053 6243 5534
23679 33132 -1185
14071 10463 2132
21171 11765 19612
35717 14228 -1129
8795 483 -9
309 33010 -2344
14658 28221 25847
14563 8469 26783
29694 15522 -175
21760 3885 -3213
35973 36762 26113
14467 249 -2421
23238 24954 403
8917 679 13675
32893 32204 28534
22528 17754 37072
10676 36381 17233
5204 9532 33282
17706 18395 -614
32195 29713 11877
20490 28073 -1914
8265 9241 21344
8918 18719 22444
33252 28423 -2437
16165 11436 2071
8366 29556 -2027
9681 3910 33601
25780 13473 32084
14297 35401 16404
12302 2148 -3270
2134 15986 20506
8722 5682 7380
3379 14490 -3371
2326 10481 16974
11679 27894 28640
34829 33374 -1794
35799 16752 -3022
2201 30585 -3540
6791 13598 -2155
11942 12906 6620
8524 26847 -3008
16914 7445 -2701
14739 33267 14990
2383 25957 36090
9542 18579 -968
26587 30222 -2317
10577 6085 -1119
35739 9176 -3261
37266 15181 8666
27991 27098 29469
23354 26434 -319
7204 36117 35012
22159 24603 4733
5604 29738 -1459
24696 9175 8630
20787 6354 -343
14112 12784 4303
16349 3391 33815
4499 7707 -388
9463 3598 20937
31985 13777 -888
24841 33101 37179
33765 30490 13386
34741 18380 -839
25856 4546 15872
28554 3619 26261
2886 7904 36793
21752 12803 -2510
22097 6245 -783
14924 13972 8001
25185 4815 9317
4052 8407 -1832
4642 20199 -317
25095 32151 14077
33374 36318 904
8027 37023 -3118
35616 27157 29351
28142 35173 2563
31071 18309 -778
29504 15143 -1093
17695 15867 10357
14658 6926 35378
1043 28479 2296
29138 20153 -3163
32205 6474 -2622
12822 908 36112
34937 21500 17206
36998 20434 3351
12226 18317 -2085
3961 19851 28436
12930 172 9860
22467 35908 6276
24464 425 -1213
16336 15333 2711
31930 1442 755
28071 5049 12585
24080 18356 15968
2000 4371 34089
5773 16156 21681
13903 29095 -3410
8853 7869 -2414
12449 30848 -3515
24145 18146 -2817
20748 11225 -2354
13824 23156 -2293
30859 8473 -1388
28673 30155 -2907
9949 12184 9672
20874 22143 31765
15270 19886 -2251
36638 13967 21973
15820 24182 -38
11129 20741 -128
33277 14379 16386
35338 30354 16726
21666 36871 34506
26393 9771 4739
34752 4514 -958
4864 14062 -3175
1860 5960 -3243
24633 6286 9756
5845 20148 -1458
19756 15785 -1716
26313 1921 6907
15820 35722 4692
29400 32793 11001
10213 13350 -107
29427 20105 -1779
12620 8613 37477
3368 30806 -903
34204 31555 10723
27350 17073 13296
27233 30619 -2306
34688 2819 -897
36532 32621 2727
32323 28438 17758
28302 36555 24357
32438 6794 6846
22942 35898 -2756
2398 27681 7369
2372 29302 37380
3329 13595 14369
14964 12271 -1110
33171 35842 20598
23598 27444 -1069
7032 22553 7424
4306 7996 -3651
35747 23822 -3134
26060 23214 23396
10568 30702 26611
24354 7253 -1586
23427 2733 -3437
27796 24110 9995
9163 19282 -2280
20702 8364 34770
1472 28820 -2851
8964 29790 12537
4790 37320 10275
32988 16692 -1094
30567 17105 -3219
14808 2798 22183
10960 31677 -2044
33978 12162 27808
30211 1059 1981
6113 20102 6239
23949 11590 10371
5264 35442 -3090
15048 19496 -2350
1342 2960 3548
6529 28140 35422
5744 16346 -2354
9043 26931 20294
20230 4816 -488
25052 13351 6761
5316 31158 6117
36638 31676 -1578
21495 17088 -2234
18307 15347 -304
27902 28808 18139
416 23573 25763
7776 26401 -1569
34924 11224 14018
21579 4276 -2449
2203 30884 -407
32336 25295 -417
22589 2328 18204
12544 8219 -1698
31644 32025 -617
4527 847 31293
7783 18131 -1771
11172 16548 -1250
22568 30843 6759
24679 12977 26946
22064 26801 -3040
29855 2671 -182
23179 21265 -3418
22954 2842 -1506
10788 20360 31714
4377 36511 22174
34405 25052 18744
34424 5816 -1303
21096 13555 -223
28809 19727 -298
13026 21077 325
21984 33053 -3253
13157 12300 29213
24708 22564 -1405
18181 24334 12757
37348 2448 27199
19480 19428 -1282
6623 25990 -227
1951 18219 -270
8607 25297 10841
29508 33284 19982
13825 11373 -1189
22460 13476 26425
4430 18922 25884
31034 23779 -2862
6248 35866 -441
23393 28551 -1795
21791 35984 -3080
35657 34523 -857
8310 22655 18503
28552 2882 -3046
21023 3819 -2224
30127 1624 -2114
32760 13073 9126
607 4053 18859
4771 8745 -1898
3862 34155 -69
22924 12772 11381
28457 5515 -1467
36020 2313 14471
12405 35304 -2594
18360 8254 -3659
2316 17142 -166
14670 23237 -2372
16795 28933 7235
11834 5706 -3529
3226 1062 -2086
17643 10795 -3485
13052 382 -1029
17181 472 18743
46 26916 -656
8865 31487 -2277
11189 4617 -1184
37204 7878 -522
14703 6008 15012
28324 10284 -200
9957 21124 -2537
33396 6862 -3065
5850 9998 2480
17190 32666 -2172
16643 13691 -147
9650 34258 31532
30552 20503 9719
16206 25358 3854
6714 17060 7048
33054 25404 27561
16652 12841 -2587
2885 23562 -2120
21467 34653 -3621
10961 33800 -336
16126 9689 1410
32686 26828 -3308
35236 26187 -956
1157 17951 -2596
15533 10125 24432
29312 20459 28956
22612 22756 16358
163 26904 -2905
26172 31824 6796
29162 7440 -1631
13853 21786 36580
34895 422 -943
35129 36200 -1289
27605 32187 -1644
14375 16850 34509
18861 20217 -2037
36417 1009 17276
1514 18327 -1015
26760 32396 14895
12890 20740 -843
427 21056 17343
19118 28878 -971
33178 31261 -2555
37338 5235 8446
16907 18100 -221
5247 27168 -938
1710 7032 -517
11419 18899 8115
25142 9094 7656
35519 34997 -337
25604 4791 19478
23718 31059 -2656
34836 17335 -1025
19384 8211 13827
6137 14496 -70
4617 12244 -2937
23997 13665 4872
7806 1824 6314
20207 16890 -3283
14584 18543 -28
22861 6712 -3209
12620 19898 -887
34997 22604 18568
23723 19418 -959
20924 10315 -2794
410 37157 23379
35789 31636 7112
5712 24283 35304
34794 9984 -858
5033 5934 -1908
8389 23882 -805
27941 20606 32373
32115 32616 -3072
36843 21597 3486
9901 4 32938
20384 22841 6274
4443 4451 27064
15084 31230 -2281
23692 1274 -1164
6298 6900 -564
22243 17049 6300
24979 9667 36077
35823 780 -3527
20371 18210 7027
28679 10715 7354
8923 3069 -2804
7647 27214 -3366
35572 5368 -346
6434 22586 -2832
12714 35519 -2174
2054 9914 -2104
36055 8418 -193
14618 26985 -2262
33766 17533 -3730
24338 16010 2701
27079 3758 22114
18660 32778 34362
23663 6374 -1438
27764 11317 8855
14137 16140 -1427
25393 35155 -1749
8452 11381 22049
22500 34433 -2052
31359 2237 36782
29031 31832 -2851
31418 31166 -805
8121 34835 -625
17764 23819 -1761
26632 28877 -3561
13843 13154 -1946
24105 29942 21083
5648 13660 -955
17875 3196 14720
6446 27416 32965
24163 11207 35501
914 20012 -1327
4081 19967 -3095
12202 34137 -1193
18587 29548 33061
35122 3078 33873
22201 21800 -465
33425 11822 23024
33094 33015 -1369
28795 30933 -20
4782 9087 -2624
8984 18576 -2299
13198 9304 -3099
33416 4030 36494
6555 35633 -3340
9548 29055 -2937
12756 28123 -1934
1326 3392 32087
14403 9819 -3350
6083 4719 -1295
3482 16982 18631
6931 32421 -3255
7762 4990 -1997
26935 34009 28281
4941 21257 7580
12655 15631 23988
25816 13569 -2001
16386 8598 -803
30272 14435 -1476
18833 6618 -3318
30446 36827 -269
37231 21807 -827
6086 28890 -3117
31656 31305 -3141
14291 36449 31303
34753 16232 29461
19339 32144 -3643
31475 22236 10495
2048 13622 27615
26601 17231 -919
33206 5599 3623
32203 24398 16382
16878 23749 -2200
12444 3115 36615
37115 25043 33494
19791 35453 -1058
21805 22730 22184
12564 6434 -2353
3719 20360 6461
2556 9757 -2716
4513 26138 12060
6287 16162 -140
25661 36863 -524
34723 15092 3952
24920 25887 5973
21198 12323 -261
34603 6244 -2332
19708 24878 10297
15301 8758 -2309
2945 21260 -2923
27317 29613 25208
23285 28873 24980
20612 29418 -1291
36998 4933 -3179
6548 8066 -1965
447 33100 -899
27870 11319 -3634
31624 424 15337
15582 6357 37119
12279 11978 -3613
12948 5934 2557
36967 2002 17854
6552 17049 36948
