30000
3267 23130 845
26498 5981 951
3172 17573 587
15348 9838 507
18794 6496 671
22888 6032 889
4213 24094 353
22284 29605 860
29792 22226 727
15016 23549 386
8605 15624 436
19569 19124 541
3190 10602 372
11504 28882 93
21753 4306 408
13452 8343 124
12007 19057 314
11344 7719 525
17167 22348 895
26087 18107 71
11622 7121 188
9866 10002 97
10877 24566 34
27911 12488 561
24790 11420 148
29605 29591 182
20037 1994 406
29522 7973 862
1184 6722 113
26866 19398 188
11590 24534 421
24488 24055 209
13840 7341 345
2241 7872 796
25420 23916 25
26892 9160 883
10646 29360 559
12944 6363 24
11936 17880 513
24451 16170 487
21326 24811 198
7399 7477 811
9469 13523 493
25418 18163 900
26115 27452 103
20622 16680 562
10863 6957 212
22194 22871 883
26789 7232 975
3851 8513 315
5481 16389 113
1593 11035 633
12738 27324 397
4313 26317 93
28909 16681 529
16865 4079 655
8845 1582 34
23052 21018 841
12867 16080 248
11476 21290 936
16134 9807 410
19031 22530 592
14958 26226 597
27073 28781 483
19106 3549 722
26899 890 501
28603 27500 859
3020 6910 218
17977 22364 459
3047 23799 84
7099 29995 89
5825 14098 666
10754 3089 614
27747 1872 674
16567 811 724
2456 19418 508
13061 1882 408
26186 7836 743
15192 3101 587
20253 2033 587
25839 8602 527
23624 16188 570
22053 24503 171
25377 25023 71
16137 23830 661
12720 7681 827
17726 11053 564
13584 23403 409
11045 21007 869
10557 26025 639
20077 26676 188
26007 21576 968
1914 29515 20
13654 24047 431
24578 10996 339
9592 23198 267
28705 28330 467
24502 14224 330
26706 28711 415
14604 27294 256
27840 16843 330
6878 17397 541
27900 20083 481
22582 1518 85
28347 8878 566
21116 17129 856
18034 1945 375
28214 22189 581
21672 11039 366
27202 8891 355
27246 18985 867
28569 16943 493
10553 11450 930
282 7040 512
9478 10022 660
28613 11802 799
17983 11916 373
10065 26978 387
23792 22227 763
26116 19326 70
25296 3201 333
11613 22148 31
28978 14497 889
13391 27510 156
8888 29583 304
1049 29083 354
16528 14099 287
11539 2671 225
21316 13533 938
19847 14779 628
22137 26843 854
25031 26266 245
18702 7157 460
20120 14576 868
20218 7249 609
16330 10839 551
16273 21827 287
29191 9937 84
11276 27258 527
26892 29710 70
9440 1806 81
11383 27626 510
22350 3442 533
25476 26434 977
9987 14010 479
23613 854 375
9898 21731 539
13148 27514 130
15017 14366 876
12838 22035 323
19125 25077 502
14985 3148 544
4709 26482 209
16677 21839 481
2393 25855 615
19266 27707 437
16307 22146 110
18849 15382 472
65 17009 65
25534 29991 677
7726 28719 135
14320 2405 818
8080 5876 400
18174 6827 400
3510 14357 90
25412 9156 160
13518 17277 769
54 13812 762
15686 29031 184
21527 11190 863
968 784 860
7994 19819 665
26498 8448 915
8648 18542 785
26238 28614 585
27867 16714 534
26296 20927 647
28691 12241 702
14183 3827 602
28539 28424 416
358 27822 611
8315 4811 813
7770 21146 605
9783 5713 781
24140 3662 226
7698 24359 534
25748 25644 694
9263 698 19
23031 5719 845
9819 7726 58
9531 23800 514
21173 10524 62
2742 19245 467
24939 7873 101
8698 29925 878
19950 9267 674
20299 26925 556
25979 19394 210
3716 1677 9
5829 25672 532
20695 26822 306
24016 2872 471
4230 11191 351
3440 25625 20
5350 24189 785
5917 27327 683
8142 22470 472
6871 22204 14
24915 594 9
3307 4363 118
14662 5872 936
3528 23473 977
356 6888 738
18046 10934 264
18325 6828 344
2028 9736 158
19271 14880 751
11937 15057 277
14587 7209 286
10867 19689 541
17213 2846 637
2986 8836 78
14632 7489 456
24415 26908 405
3127 25400 518
4823 18064 451
1795 29911 710
1723 8988 523
9585 25467 377
2061 183 272
21497 3736 361
5123 14617 726
28610 8140 341
8855 7129 574
7481 14336 878
21934 24623 832
22596 29526 334
22055 24293 636
5437 25397 88
24455 10649 151
26540 6009 622
2362 1709 22
1896 13260 533
26746 10328 172
22845 14972 744
11785 16049 244
27160 28636 671
15294 6870 403
8358 9999 329
1968 5544 342
3936 14711 151
3097 27896 453
15398 1545 944
9288 10458 430
24428 17785 861
10036 7323 619
24977 29704 743
8075 650 230
14195 14821 386
3355 28134 907
28463 27695 938
21313 11849 229
2697 5427 769
8689 27107 168
22186 11019 616
24877 17981 308
17755 27400 315
5105 10616 765
13891 15784 760
16331 22736 5
10324 26101 315
16882 5269 34
29985 11606 110
23416 11151 126
4066 3659 145
24687 23647 562
6994 7419 837
321 1462 482
17058 14806 595
6795 10013 364
10086 7313 71
809 8668 441
13328 19356 649
1649 29515 633
26217 17606 707
22260 3365 706
14512 20372 983
29441 8793 501
7607 28930 471
29661 18514 270
16757 7194 992
4318 13286 754
8590 24315 574
27925 15350 190
7785 5915 161
21831 21562 497
27768 29921 635
10498 6956 655
24965 2639 973
310 18306 218
25217 10531 55
3663 2709 309
21030 3076 943
15954 28373 871
5250 1614 40
20265 2262 222
12911 20368 428
6686 11004 675
8318 25866 18
29486 12141 401
5305 3127 730
18669 17773 472
3026 22498 338
12081 13852 63
16801 3847 668
24266 19050 770
5465 13195 897
22095 9728 120
22829 1026 992
19115 3043 902
9659 10456 741
21722 2147 249
6067 13537 450
24133 14004 496
4614 3377 950
1333 14574 893
24671 14319 450
201 25662 243
13333 14133 8
14248 22302 145
29055 27447 155
5493 5884 97
25944 27329 164
13577 8533 764
15850 15831 54
3809 5369 757
11818 1851 620
24982 21973 111
17091 29739 567
25215 29403 615
25346 18286 79
12587 23015 890
21906 17944 213
25679 20515 817
19119 26860 289
29263 17888 543
13809 12084 768
24121 19292 752
8617 7995 39
17747 29623 122
12307 5430 502
11541 20258 629
10115 21788 930
891 19252 161
27300 14155 743
28114 10677 68
4897 9354 218
27439 4309 537
25695 28076 226
178 20148 516
15027 19023 52
3632 209 385
2471 4265 71
28497 17501 272
7827 20668 663
8019 27513 51
7956 29540 102
22108 11196 606
8366 20487 699
17027 21210 440
10138 25792 880
16208 19868 382
21517 15220 67
9535 19595 691
24357 25797 861
4886 26042 837
7909 22180 333
12879 24712 457
1212 15121 269
20999 2779 203
1518 18118 384
14692 16253 320
24287 28233 419
24955 22058 537
13718 7790 589
15465 17525 541
28142 21276 991
7601 24988 143
21875 28673 89
857 16939 18
167 27784 299
22660 21483 317
24671 24210 658
401 28185 992
19186 19281 224
11070 27442 656
4776 8226 775
16120 12839 705
8235 10515 833
21717 10978 520
7452 11607 765
22944 315 402
25341 19060 984
23162 855 552
26188 11794 55
29985 18130 318
28779 28264 240
24162 24429 861
18955 15125 446
16223 15860 998
19344 25564 628
24862 1941 250
20208 28475 506
21360 20811 16
16162 18048 22
13791 11774 371
14044 11503 679
17642 28022 702
948 19941 610
5186 28203 593
8361 5429 228
25767 18418 625
22455 1056 691
9049 25432 302
1059 23770 192
24283 26763 661
22463 5001 718
19876 13215 361
24448 14552 357
13132 16890 494
5288 13348 134
19839 22292 884
24096 29831 249
22031 7463 195
10591 21565 864
23691 3885 364
6234 6041 371
21139 4743 371
6444 22944 832
11783 13229 801
10287 6784 547
13741 9717 365
14112 7230 595
15162 28850 527
9444 16279 701
15725 14535 676
26562 7914 575
16322 1510 995
18412 21562 568
29541 11084 803
14839 8387 847
14657 7396 866
16394 15578 162
28257 2096 109
23295 23321 876
29939 15555 407
19205 24117 126
13004 16155 632
9383 6408 257
12428 2482 3
10713 10928 216
12419 17712 883
9643 15885 413
16763 19357 42
6846 3484 920
29216 1963 405
28516 23694 566
5614 26794 635
3701 26125 670
28858 11373 448
24556 14638 636
4170 26050 456
19953 16325 429
4201 13663 375
24814 647 523
16655 9228 632
48 12696 826
21392 5366 691
23038 12690 94
21411 11156 393
14539 17839 959
26854 7257 780
3345 17884 552
3714 26895 73
11180 3162 371
2638 24767 614
21417 19484 308
24307 21771 527
21400 6658 341
11501 12271 994
26825 24096 609
13755 3118 702
19139 28707 721
9853 894 191
12971 20584 990
25842 28958 618
23049 6294 722
23911 3307 624
2944 1615 740
20484 22370 845
21504 24802 328
27880 12214 543
24797 27295 27
9859 28140 980
19830 24162 291
22122 7230 314
15873 17272 901
4504 16129 206
21605 19631 761
29443 23057 150
1165 13459 275
26975 17471 669
18770 27067 37
19960 14478 649
20441 7113 940
6928 17831 368
27604 12397 665
28192 10621 981
24717 9555 661
81 5307 607
10416 18 357
6964 919 73
12889 7769 142
28924 29237 545
20012 910 496
26134 280 506
3315 28396 937
18388 15261 659
6011 22806 773
24540 9490 986
24626 7724 96
25385 27129 514
22986 16343 514
13869 27794 343
5477 12432 671
28915 27054 411
6990 4091 742
14713 11484 88
5509 2155 208
11391 7453 552
27728 5729 873
26553 9865 300
14173 21558 494
13767 10109 278
18021 7991 321
27978 27174 203
20936 7246 988
22614 2877 869
5595 13668 570
22512 8209 512
20472 5184 286
19583 8088 248
11319 5792 333
26453 28377 48
17570 13461 288
18702 21498 125
10936 15631 956
2707 12371 772
556 24809 238
17466 26579 798
22340 24352 300
16245 29172 709
20111 23934 716
7056 14617 130
29213 14424 420
15273 21581 465
25449 28595 911
784 2561 142
2834 24236 797
16758 1180 144
13236 5612 827
22507 24505 784
18606 25090 859
12830 6419 853
15489 698 647
26023 3826 565
29820 311 508
28265 4005 313
15003 2189 342
27401 20765 201
11902 25465 174
15426 15751 138
3402 25801 751
4797 16659 399
17892 27994 605
8107 8482 636
21384 21997 79
12754 9867 306
10475 16734 773
5721 28597 398
18060 6352 397
930 15742 92
15940 21425 933
28968 12573 321
3188 26154 974
8286 8819 452
14730 8414 29
7318 20642 452
25597 3304 75
5040 2671 685
27733 28731 577
9409 24955 707
22297 18211 976
24171 25678 748
25428 16067 135
7575 16982 913
17587 20110 310
6611 21503 458
24660 29794 701
24531 6007 628
3023 6244 411
12812 4218 956
18378 24499 822
26583 2265 480
20642 7122 840
28157 11752 135
15666 28815 919
24380 29344 103
27694 14165 915
14209 20743 384
4044 8687 644
457 12410 487
1194 8459 598
11875 17074 875
24386 1339 249
17404 930 356
20527 14378 384
16372 11601 209
22090 24334 46
10756 16750 776
10162 1450 635
14365 24146 672
23701 13660 378
17304 9427 616
5289 22728 934
6632 8655 494
19846 13212 675
16320 24047 49
14110 8354 275
4860 9983 541
19480 27109 877
13047 8807 643
29251 9255 507
2965 23855 766
28964 24164 418
24431 7765 628
19703 8508 89
5822 22342 647
13141 21586 352
27235 26240 24
11813 9748 724
19900 7909 694
20051 10569 289
24132 26656 536
2488 3780 705
29700 13015 675
16646 17629 159
28518 11788 968
5648 19717 753
15356 15321 865
25407 4842 734
7127 26459 69
15806 10790 119
3007 23318 854
29180 29369 903
29055 19572 183
6463 22461 812
135 27349 108
4714 24916 714
10736 60 452
16985 16711 782
27061 27559 982
20518 22591 187
23904 16437 862
3874 27508 703
470 18530 230
12757 17703 817
6581 24025 829
9316 7366 410
12771 13838 478
1112 25174 467
5750 29910 287
8044 440 35
5133 16754 310
12060 2890 219
28720 10142 735
26197 2260 103
29174 28425 606
6611 26082 752
22112 92 84
6525 28663 721
7162 19859 156
4178 19751 918
14187 21593 196
5313 29605 431
6728 26316 336
27642 22313 265
3046 27765 337
23308 20207 324
27885 23347 878
16304 25217 738
8891 15257 314
24603 27708 288
1589 12533 836
17637 4391 889
23302 29791 101
9752 21223 973
22490 12379 149
29170 12344 971
13785 14491 724
23797 8153 771
12066 17591 61
7276 11667 390
21981 13397 93
5447 10126 510
8420 25735 38
14290 6110 203
26598 25290 974
16100 10612 854
23595 27454 130
2710 18018 523
5281 26928 409
24310 25491 64
21383 989 18
18511 29980 374
19078 19933 412
9458 5959 995
14993 16889 110
14209 25279 679
4252 22522 781
6829 6574 13
3350 12500 366
4469 14507 332
10375 5963 452
17963 9135 231
24799 26582 281
27857 21256 948
3365 9401 793
21328 4207 358
26809 12729 899
19698 27423 322
25935 10985 183
1445 24302 516
2400 11546 948
8151 19414 961
4905 27265 649
14571 4612 111
25036 27006 887
21099 24393 32
10676 21511 533
17155 14396 239
21458 14426 136
895 4082 841
28105 28254 494
16033 22202 86
20805 25147 658
24954 5036 437
6108 11177 902
11966 8275 915
16685 5134 520
14603 23768 538
9950 23046 299
9941 4148 23
16524 23884 634
378 17315 495
26186 13883 145
12737 11925 500
17895 15023 843
20656 27806 438
24912 12772 73
22537 27281 963
20569 21300 520
21988 10167 331
26610 5240 241
26805 6885 277
9071 2785 275
14376 24567 125
26129 25000 779
25554 5543 860
29489 8155 441
1426 2975 291
23538 17948 922
16287 15334 987
12610 5649 560
28446 18849 249
9101 9224 435
9561 5673 227
16316 3293 790
13666 4577 467
21249 28425 777
6269 19069 511
3191 22434 30
28505 5659 873
16578 14525 451
13904 6255 562
9162 18226 180
10672 11685 859
28501 6987 601
12683 6779 432
19952 10505 171
9901 21976 839
2736 6814 461
8449 2631 491
22729 28817 324
16703 13632 257
15385 20733 87
2887 21761 63
12557 3631 834
13137 10241 770
26527 4831 84
9417 29933 151
19848 28367 716
2143 20383 284
29148 22999 47
10018 9996 809
2165 5573 762
9242 19980 932
11335 11018 872
22485 1840 455
16816 19700 324
28337 5902 81
9094 12418 613
87 12503 88
1740 2229 992
12360 27558 893
21117 14236 878
20854 18775 439
26388 24050 74
18443 27030 242
29240 11717 421
4406 12862 578
22042 22974 800
25830 2048 270
28650 6975 22
27223 16247 13
8807 24509 662
22928 10935 74
19986 13570 147
2614 15724 168
27749 14519 1000
18621 20804 887
16385 21449 707
21440 29094 975
13912 25896 231
25943 19411 410
18311 14841 972
23780 10332 864
18229 608 918
24364 16899 714
11385 8837 758
22165 19528 874
5637 20898 213
9640 4086 455
26315 26297 610
3431 25142 860
13603 27564 341
24997 9382 909
9972 28176 763
2387 15473 292
27171 14707 53
13787 28207 18
6190 6640 436
1745 7654 705
27776 23172 852
24610 5648 28
16150 25929 826
16525 17480 899
2056 1708 784
25276 26609 622
11895 16171 468
13720 13762 569
10930 5701 806
21083 22225 645
1292 19651 104
19464 15810 851
24730 7570 11
22790 7029 790
10544 24723 759
23663 24257 530
18887 20279 627
27728 10356 58
10928 1204 356
16249 12514 652
8646 11972 609
19799 5857 252
16528 4727 201
26255 10009 565
11962 18114 902
19667 15790 178
19803 27899 835
12838 23312 826
11323 10314 892
25097 17366 123
11469 9929 102
1959 15208 799
6236 25635 565
13007 22831 513
24382 12583 28
12932 10449 580
27679 19622 512
5194 5991 926
11138 993 794
23357 20390 691
29492 18255 869
22595 5997 83
19582 21645 44
10298 20407 973
17181 16658 816
12736 1730 103
15776 25723 330
18098 28291 630
27903 9272 307
24253 25293 605
15121 270 706
20970 5407 790
20150 20098 935
8431 27122 929
20753 29514 209
3386 20295 849
21883 24328 83
22776 6640 60
29691 20265 132
28555 11313 881
13038 8658 105
28938 7272 446
9229 24071 876
21363 26166 59
11962 22431 604
6763 2767 836
15494 872 625
2573 16759 160
3412 6300 103
4172 5078 338
13908 18337 334
12780 8686 940
14469 6556 922
16887 3976 186
14856 25528 605
10907 13907 524
12706 25935 374
26521 22732 518
24861 23040 836
1880 14531 203
18518 2952 260
24061 1325 634
19441 22057 929
920 18416 654
18274 24376 584
22649 19682 198
2301 27845 922
7972 2078 346
1048 5496 484
23886 12970 858
15292 14405 8
2761 14894 594
8554 23628 170
23959 18282 202
15834 14197 69
7519 12030 365
1377 29795 681
13347 16737 445
28179 1436 859
18474 20254 734
6517 1236 621
25296 222 465
1768 16859 919
15819 2067 406
11941 5375 824
6011 5487 41
9468 23656 414
25966 16162 592
454 8875 453
26192 6956 994
11710 7407 54
7317 21525 275
4070 16128 679
20811 10642 66
7729 21933 456
21532 23312 910
4119 18604 221
2987 23830 793
3959 26127 789
18365 27561 902
20633 13865 984
23539 3379 981
12685 20801 359
8678 5841 699
16615 19805 72
6645 7336 97
25704 24211 225
28594 3369 580
22813 13878 628
29509 21713 965
11910 21448 49
25236 13435 304
26327 8548 561
23648 13459 940
13796 11453 845
24637 3201 696
9522 17572 318
7812 26778 145
14851 13493 636
18428 2996 561
6922 8642 789
8028 7146 516
5725 22358 527
1026 25274 549
15693 27490 571
3029 7745 460
24523 23156 495
11406 28704 820
2294 3912 476
27627 10991 13
20232 16897 417
14549 25314 47
503 17280 889
28735 20059 12
9820 24513 159
28618 8168 766
2414 22048 835
10295 13477 392
13890 25749 48
9835 24177 18
29323 5802 469
13707 21246 428
16673 17487 596
23618 12459 165
14733 26422 925
17865 1226 186
202 27969 336
26687 22111 793
9809 24008 499
26153 26749 170
20443 18885 521
10715 18988 951
9668 395 85
6723 15661 91
22905 8061 119
17428 8870 945
29701 17351 370
26198 12837 785
6849 5321 335
13755 20297 482
26517 28081 485
14365 28516 640
21026 954 878
3498 26147 828
8315 1790 853
16516 24391 176
21938 5254 394
21198 26711 425
25431 2313 379
19182 23021 609
24451 23840 171
14460 3893 742
14125 13151 507
15624 12900 737
6125 2483 907
17975 906 214
18680 18261 983
1736 1260 348
457 13020 545
6006 21624 739
11419 21959 584
12771 28623 659
20357 20933 92
1316 7672 42
21930 19065 86
15015 15564 520
19750 14973 230
29555 25835 367
13128 7132 90
17199 2157 185
28306 3746 807
18820 13684 358
4219 9763 354
11691 29936 483
14833 23613 172
28433 23760 669
29504 28800 885
25763 1289 104
12081 352 896
26408 6425 446
24572 13899 200
29623 5972 756
3616 23103 153
15385 9154 729
17134 5438 704
7025 22934 973
2796 22467 470
5820 18505 177
12940 14517 208
7377 15158 897
18916 281 784
13241 20710 949
29065 17016 141
8178 28491 797
29050 13604 454
6705 5602 786
24390 13262 736
22601 8784 323
305 1732 349
180 22430 167
24170 26708 868
29177 19645 139
26248 2289 287
96 23440 210
8494 29199 225
7693 8816 373
14313 14930 460
356 6841 49
18587 5700 649
7408 26384 301
10255 14005 39
22815 13521 660
24342 5131 761
25858 19969 937
26087 21479 483
2751 1866 169
3673 10643 138
18146 17840 855
11541 5829 317
27253 18272 383
19301 29368 880
18607 11470 562
19078 9250 827
21980 17670 359
11357 21210 858
20507 23615 175
5351 20560 485
15034 29125 895
20836 6124 251
1594 24204 579
18619 954 963
19813 9163 378
6 25818 960
243 2752 839
9683 19429 1000
26988 28827 629
1197 8514 676
12356 11817 703
19140 27067 829
10411 10884 594
3495 2758 625
9780 23898 215
16749 21829 977
22715 13931 194
13348 26924 727
18861 20083 207
7369 263 112
29793 27555 239
9327 21111 241
25828 13085 976
25457 22351 329
18966 17959 224
1015 25233 174
13429 9058 95
8033 17447 612
17301 1058 585
23523 6135 310
19422 28833 330
22016 19076 147
7010 624 450
4090 21357 815
23737 26587 161
19591 25972 953
5709 18764 550
28216 8520 742
20311 2797 351
2476 21790 409
26072 11228 343
15646 29496 89
19415 26701 584
5606 5206 64
18326 25097 911
7907 3509 180
26457 8800 629
11263 11126 709
19787 14701 82
6418 6976 338
9859 7079 950
10699 8857 616
16974 20948 331
22449 8779 103
21427 14603 104
27797 8281 857
24163 237 693
28528 20988 612
1097 22923 503
23483 18206 2
11205 13892 691
8996 7274 195
18463 14208 597
1104 29971 712
5535 15564 129
1642 24599 883
26254 15285 428
18994 4554 125
12509 2045 148
23575 18540 710
26984 4912 376
28418 14467 826
12809 29943 607
25307 24879 281
10996 17853 921
10301 6618 108
11601 23545 56
24126 8019 339
26556 6990 40
11848 9391 12
11982 5762 651
23125 11945 730
25649 23999 39
29866 21318 35
16973 27328 518
19185 14730 859
5307 27388 182
14920 24441 405
24396 16720 612
27310 13210 608
12590 7427 355
14843 17022 22
19747 21599 261
22576 348 791
18414 18004 561
16873 26008 226
27754 27579 445
104 19831 880
6167 4907 765
20609 12838 753
3087 4710 620
27853 4444 479
16140 26630 261
16257 28234 876
15464 22480 47
21439 28100 107
6118 9678 177
395 7810 137
21112 8138 302
6435 14343 174
2960 9574 815
23828 19795 973
26669 6010 61
29838 18248 615
15235 14921 370
5845 24336 106
18294 8625 86
22825 18855 68
13204 29047 722
7132 7894 182
12733 5041 406
15184 24399 155
27569 12942 706
23190 6206 694
26750 12314 791
9322 4179 267
4089 5360 910
13851 23352 819
16675 11402 975
9687 6299 198
5483 29146 115
20041 21969 733
17064 25416 631
15563 18986 18
12832 26730 292
10135 10407 189
433 4162 118
18318 26004 625
24066 5856 537
25121 23673 183
6928 28642 671
28116 4178 181
13755 21527 195
10020 26426 224
22774 9712 72
20847 29184 904
24451 408 166
23552 5918 420
8401 4416 308
5892 7996 643
15393 14732 718
3737 22414 547
27908 20583 796
26383 6244 445
26592 13763 405
16602 18639 132
190 4570 225
391 8704 143
22867 20367 971
19805 22951 395
11940 10602 126
14386 29614 805
27600 2398 911
19061 17776 192
10702 6731 523
20677 24559 647
11237 9441 93
332 11905 16
22026 6569 108
27341 20710 929
23457 949 745
29224 20722 743
9010 24944 564
18376 16980 440
7195 7623 363
13014 5573 245
19805 27686 276
27439 5462 246
20433 10753 836
22006 3405 105
26323 6261 905
10000 26572 616
6897 25643 263
14008 27242 332
20308 5869 869
27149 18842 406
1448 24276 323
13531 18586 448
2083 13485 28
9359 26125 594
21575 7192 712
18544 9077 936
1391 25395 441
21874 4387 565
2124 28781 608
1126 23753 417
24281 29369 394
14014 19943 878
25878 344 1
25233 28335 842
20135 18798 906
2098 17514 548
3167 29962 800
2553 1731 8
6306 13065 437
28215 13682 919
8778 26240 376
2499 28905 525
22212 1430 97
23892 12842 793
27123 29160 651
5607 4879 378
28813 15023 812
23219 12407 371
3082 25577 96
4015 1885 986
15636 12821 312
12515 5965 469
15542 15922 589
8044 8464 145
5906 27374 806
19387 23381 382
1194 14786 815
8859 22914 972
20605 8438 994
24067 8727 149
29034 5575 456
24344 3675 627
29762 16921 251
24467 27231 503
4991 28963 224
23735 18583 773
3551 16417 462
31 18907 818
14240 29683 727
10327 29632 330
19414 19592 123
7061 29589 937
15724 26388 697
22676 17704 863
3348 22086 560
25474 8578 201
28790 23178 68
18186 5958 686
9958 10691 412
22046 734 179
19538 9547 662
23348 8772 732
26775 10636 879
9289 9892 340
25388 2417 123
19945 17796 423
13128 4285 688
198 28800 385
11958 3732 525
11052 26995 343
29690 4093 456
12950 25964 199
13646 5850 724
6054 1949 195
7484 25273 621
4885 4986 969
17269 20378 73
10921 26180 152
14607 7413 561
5608 15905 507
22547 21174 805
9185 3233 990
24367 26331 972
16228 15293 935
25882 5747 431
3429 10335 372
13592 28419 751
3605 22377 862
6193 24401 638
4785 15231 637
13202 6058 307
26375 7673 898
179 27997 212
26935 22716 338
17548 13397 385
3058 25142 385
26477 7123 868
8692 15082 410
14911 25185 715
6756 24131 604
256 24516 37
16211 638 431
21929 22416 634
23784 8987 321
9679 26431 942
913 25892 731
7254 19483 714
22198 25962 845
27436 17745 341
23939 15071 707
23996 29220 355
2153 19699 422
11069 10443 411
21249 6562 963
11283 4628 18
16293 5766 241
21096 27259 322
25576 4922 242
20402 26483 127
28302 154 903
17788 20617 170
26458 1699 536
2138 29458 80
15534 18322 38
25381 21070 240
26913 14800 653
15589 27242 782
28514 9562 549
24112 28085 24
5150 13410 163
10957 12752 677
2215 28839 159
28672 17465 181
11280 4755 934
5385 7381 98
23874 13543 932
25685 21821 430
24713 1995 235
9324 7733 417
2538 21522 52
7485 23590 155
19314 10718 407
14665 14364 61
3791 55 573
27317 3733 336
18752 11667 617
20999 16003 275
21466 14519 999
512 26056 289
6872 2597 907
3572 16276 441
10763 22416 422
18504 13664 960
26747 24542 309
17663 5263 226
22486 15962 232
16006 22583 810
9124 28178 67
3311 9776 317
26990 6247 976
24449 4278 352
18704 5169 897
12808 20348 48
1300 15086 290
29590 23353 429
8188 26001 859
9040 22315 551
18373 12113 111
5523 545 763
8580 23206 865
20508 19813 138
18951 3448 395
6689 94 820
24696 23023 531
17104 602 725
279 29633 6
8833 204 237
25525 9569 321
2583 1785 209
8913 26144 776
22797 2608 893
9218 279 183
12825 25795 811
7845 16976 321
28986 15697 863
8401 9671 655
22774 3814 995
8884 22233 928
6826 11925 699
12652 10476 519
7845 7267 840
12753 1082 545
5484 2678 564
22640 28003 60
10429 29372 283
8742 22063 588
13176 27162 198
28128 11317 759
13897 19782 529
14908 29474 748
3741 20949 542
12190 712 15
9652 19326 965
15451 20762 37
22761 16625 47
26822 17865 207
3830 9491 229
9695 18239 970
13476 2628 490
27250 17567 530
7792 7813 963
15789 4634 494
26535 12417 565
23209 21710 356
18487 29173 423
3502 13590 169
21331 24118 759
24581 15269 891
13176 10904 82
3346 9433 229
10093 6758 787
5294 889 22
27740 17880 798
12582 27394 178
9855 18075 235
6797 26402 956
4151 26344 517
8625 22122 534
9526 21314 704
23079 2302 729
26364 1814 864
11243 2376 697
26937 14913 927
20731 10463 468
8560 27738 434
14614 6095 25
13336 20061 885
6038 26861 572
25643 12700 819
2565 28619 985
18487 16209 30
20312 15484 468
17004 25691 968
25637 29412 655
29102 24068 682
19246 15676 868
4845 5146 59
19451 24841 342
26039 16307 786
18901 20715 267
695 27092 399
18080 18252 361
29558 24692 361
12115 10868 138
17492 18090 936
20009 10728 457
10338 17801 894
6027 6235 890
213 23760 640
24673 658 729
26110 23237 178
20552 2183 945
29302 8095 524
13885 14798 15
28635 16696 29
17659 19397 705
28009 27596 833
18476 5937 222
20979 13401 629
11820 25142 841
10850 25259 809
16449 2152 770
10125 4529 282
14464 16345 216
3890 1449 802
1836 8516 420
25388 3846 955
219 661 863
9763 23576 337
27051 7514 183
6577 20176 101
23274 25720 726
6833 8483 74
19627 17868 898
5642 260 118
1406 12895 202
23583 12355 132
19175 8024 775
1428 25623 629
19403 15898 558
16970 184 219
18543 20139 354
10077 13659 652
10663 18155 359
12187 11322 309
10466 21344 566
15114 8663 56
22981 14146 364
25367 3320 362
480 2335 917
21139 28322 145
21230 9116 6
24504 16687 341
18835 10385 855
22731 27252 229
17640 23343 85
26771 14715 24
5856 13647 69
25927 10105 577
15600 6253 99
20671 1524 703
12510 28710 238
19055 22109 659
16352 25709 141
8542 21090 916
26941 2055 305
14582 1772 162
28067 21425 398
12908 19008 331
12678 449 492
11966 28940 783
5561 22234 582
25259 14648 270
11142 13165 484
834 26659 104
22580 14786 4
4468 28843 548
4953 7070 182
15968 9545 705
12336 12230 551
13102 22736 973
5741 20550 982
20076 27212 470
29612 10403 676
28315 5549 161
21506 9962 198
10661 5971 576
29266 14202 547
26921 1405 642
3245 11570 698
2459 23003 308
24431 20499 882
8323 12919 207
3079 9021 625
3351 26297 898
28992 14184 310
27036 21763 715
26783 28856 630
25328 13433 467
24382 17576 687
16388 2913 541
5371 490 471
7948 6954 492
420 17351 52
3586 29496 97
12611 28037 310
11385 11221 683
6565 27255 223
11153 10981 239
14270 28922 431
14801 15545 928
10019 20944 530
571 6827 66
27052 22971 177
6513 8556 54
13293 6362 930
4501 23990 308
5156 7218 264
5742 21740 122
21323 26370 770
15320 19613 648
29312 1330 826
24813 7856 619
15229 3403 827
15983 20835 728
29003 27905 897
25391 8377 586
14466 11547 195
18743 27205 248
6422 28428 40
6647 15724 420
11461 10780 340
19469 12702 139
7853 5420 546
17620 14548 149
1532 26763 911
3656 15345 612
20933 28785 143
1099 20164 880
527 25519 136
8059 16616 375
18670 26724 616
18082 25977 4
29931 14046 724
4647 12020 722
18011 19303 613
14276 6703 985
18364 3357 464
20975 3036 726
647 8174 557
27106 6682 388
13775 16804 547
4238 23543 482
15210 14101 558
25734 20908 319
5939 29087 327
26962 14616 442
20087 7672 342
23273 10671 212
10482 24629 988
10168 16374 203
28577 14589 129
7333 12372 579
14631 5904 710
28758 27059 563
2119 10708 51
21221 18134 170
23006 23091 640
24813 21462 247
12030 5624 416
27675 26053 357
19714 1118 408
17595 14469 389
29542 22684 546
21707 12743 702
4495 9907 21
27889 11518 539
4715 7759 524
27414 6856 990
27530 19657 518
19640 25445 887
24942 23343 13
19804 13507 685
4252 14469 669
24965 4332 32
28243 11231 886
16428 21509 927
9750 758 85
5758 29971 429
13840 7587 287
25602 9973 56
25373 7145 503
11729 17709 253
3352 26596 535
15298 16972 609
27100 10980 155
7950 28239 854
26777 19475 827
29723 2034 762
28612 10633 37
3249 21549 650
21068 24094 913
18861 19887 954
2583 29547 318
12841 10398 703
20646 16359 765
4135 18297 46
17396 20666 469
12803 19673 262
24761 4353 260
18892 20922 438
26789 8072 109
12747 2363 863
29747 17570 839
23587 26231 582
10951 7747 321
1778 16943 938
22563 25350 154
3639 911 836
18686 5796 653
11728 5436 297
6612 23544 262
3151 3219 421
18922 1894 22
27490 28445 52
25325 17522 555
2735 16511 581
392 29299 885
17690 6265 653
26400 24495 450
18008 10998 390
8421 856 672
3262 11891 150
3991 23778 770
22564 889 384
22685 15433 618
4614 23231 879
26809 8584 89
20169 4321 619
7334 24145 45
9420 22744 156
7683 29636 294
2448 16473 641
21049 20679 100
13929 4784 94
12857 1841 981
5163 21244 439
1724 27496 381
10591 12350 753
21106 17343 826
15461 28663 309
9083 21889 823
9895 11229 22
22823 11397 65
22909 19751 172
12922 16197 985
28781 4301 938
6174 2729 837
6205 2769 511
27485 3688 884
16835 14350 127
7749 18100 232
6879 23608 774
15511 19337 737
4749 28864 289
29011 18618 547
9547 18265 231
2028 23920 213
6663 16341 307
11390 22049 766
11755 10532 261
4028 12780 420
14678 22605 931
8093 15997 218
461 333 14
5018 28911 132
21164 6674 548
27383 24710 349
430 27265 407
29887 25208 124
24742 5222 11
10847 4742 254
24854 26788 555
18170 20632 236
24266 12235 644
27553 1734 697
16573 11074 124
18310 24944 758
12381 19391 693
11482 11615 381
19269 11031 753
2203 3528 678
10786 24889 115
749 24305 220
13326 28319 728
23192 8666 119
11171 3326 364
2992 8090 619
23363 12587 22
947 6677 710
20523 17354 445
28471 16671 83
1063 10878 69
20716 5545 194
9133 11256 213
19637 28243 975
9460 2149 149
6861 1012 388
6182 22612 97
18085 10961 664
9706 17950 359
29072 25376 819
10887 27013 233
13163 3007 605
15414 4262 653
24013 21360 843
19898 26160 339
3381 3896 966
2835 27815 422
20090 2359 407
17732 22300 623
27386 9773 610
11274 5783 833
13264 27696 645
26657 5319 219
2604 15738 968
11942 22157 255
15283 20083 170
13230 18391 352
18881 16050 483
24282 19377 926
23470 6478 101
20771 29563 116
22336 8771 66
27354 4042 467
499 14470 128
26475 1439 913
18639 29574 863
24731 8418 744
21332 16508 132
10001 25029 373
15966 26029 77
16541 29256 726
19508 22431 596
21421 20798 84
22468 23170 472
18388 19118 324
4515 21350 837
19978 8799 44
18761 8270 112
8875 23079 465
20870 2205 692
20971 9030 175
2909 17194 766
17395 19698 687
19802 19089 704
2151 24561 406
29699 20954 530
26676 15884 913
20417 10619 98
8386 29975 139
12340 5883 292
10337 3820 750
11070 1081 387
29344 16081 208
1696 26786 705
11758 22441 830
23259 11286 677
18529 289 86
3799 1701 368
12867 18590 204
20784 20431 172
19740 12058 681
15335 26169 246
4743 16517 965
12518 16642 814
15019 16603 514
3623 15393 31
4176 7245 464
8747 18242 560
7169 27813 597
4553 314 646
22824 26860 910
29300 16956 227
23960 12774 317
25044 26748 439
13802 27363 892
22072 18281 784
27684 15419 476
4808 23155 163
20714 1494 55
7486 29466 112
4684 26847 439
23858 15194 779
24406 13407 175
19425 22006 879
11075 18501 208
18108 19509 265
24065 17437 631
16700 27066 457
3118 5006 542
10816 6486 259
25613 3594 811
21006 27941 629
3341 18994 83
20243 6398 329
6236 10499 555
24456 3493 225
23981 17045 389
26671 14997 346
7092 27996 608
12152 834 830
17748 26356 367
13465 22748 817
7102 7448 973
14286 20300 166
28169 5310 160
18370 26433 414
9786 3363 432
3365 26394 428
21822 1124 61
14759 12943 930
4369 7757 288
1568 12672 811
20783 3089 802
8588 13869 35
20008 2084 824
11619 20989 969
17145 26664 902
8957 1515 745
28505 26770 293
26015 28369 548
13670 26450 768
23601 9258 960
12244 9571 949
17050 20513 166
14730 1284 13
22489 10625 223
29058 19250 233
21602 18266 45
2002 16209 788
4085 9140 832
18988 18569 165
29976 7336 543
15227 24484 859
7679 3786 610
25163 11352 125
3241 5480 748
28163 24931 338
23198 5639 755
9377 25054 162
26181 23990 188
15864 1338 160
27760 6150 329
24532 24421 245
15065 25292 491
3280 10931 838
23260 28772 571
24574 5797 194
29734 13657 825
12332 8550 977
27198 29328 115
4688 26048 569
670 13615 423
3990 22960 4
20203 29219 783
15614 17684 714
9821 19468 527
214 21201 733
12028 2427 328
10746 27963 759
27240 14370 883
27112 21031 542
2583 16277 259
11586 14989 718
22982 21487 673
18256 16768 639
15913 7818 743
28785 15556 862
13250 14784 678
24048 18781 930
323 28473 717
28981 17942 346
23233 26622 464
28909 25054 72
12341 20315 358
18901 3384 581
8670 503 840
12034 15340 66
23646 18513 714
2200 4532 189
5206 28137 928
21777 18328 881
4381 16564 845
9409 14511 466
10387 14573 17
18446 24857 170
20928 12993 855
18514 16965 73
13307 29836 697
10289 8609 109
14065 5008 12
11838 21332 452
707 7961 579
9727 18786 629
27255 20977 49
26343 16571 260
20284 27150 974
446 5997 109
26958 27048 208
26307 17300 938
1710 20062 355
12654 2899 464
4691 20512 374
5059 10647 426
10460 14889 665
23639 28159 922
15112 16427 59
25552 25015 209
12017 10999 315
13574 10983 221
29283 11684 681
15241 4064 120
11271 27279 837
3885 12619 735
13927 21248 912
19491 21541 249
27057 11113 195
29026 21347 634
9590 5366 962
22392 26475 634
20129 3655 811
17093 10199 835
16647 25661 147
24200 15086 352
13984 3208 595
5561 17810 544
15023 7792 979
10026 631 886
14874 24891 278
10061 21320 500
19615 4484 967
25119 5005 894
4568 12518 339
25824 21925 684
17058 16055 916
21383 8260 943
3808 6654 278
29768 22901 207
29200 7093 134
1907 15628 600
29440 22840 692
82 13635 257
23154 14106 40
24124 8216 172
7085 8509 121
19221 16146 649
9995 29855 796
4180 8584 974
15969 76 444
5636 4711 516
17641 1724 238
3155 25440 182
1660 29423 709
17919 8636 905
14231 4671 108
25670 9912 829
28241 21794 861
27648 15444 463
25225 21677 409
8428 11401 637
18445 27471 423
14965 19104 643
18171 13182 714
7854 27349 69
15186 9125 118
17693 20301 15
17500 2876 960
4027 1260 388
278 5894 104
27892 25509 487
20686 19748 328
14457 2344 483
14945 27335 745
1758 1013 109
7066 25448 15
24006 10197 704
710 280 194
8486 15356 408
4884 14347 177
6533 11532 488
24508 17490 252
12327 14459 384
28826 3108 708
10792 3897 373
3159 3489 616
2976 9905 214
7129 20084 8
16847 22670 200
5323 4819 464
18101 17770 778
12901 13563 123
18816 2212 193
20809 27361 99
337 14808 972
18173 19732 418
21239 10257 517
29315 5585 877
22870 27536 167
20299 16584 402
21393 11356 351
27005 3866 485
2213 20199 690
1586 3566 888
14332 24292 610
16538 27640 180
16935 25214 625
14437 27827 877
14689 18975 181
28068 4571 483
8228 12263 556
3816 20132 775
14318 3779 360
0 26186 499
11654 11035 487
11954 24118 980
2664 9993 270
4 19310 530
28515 22048 418
6465 5325 928
20252 27712 652
24283 27219 189
28598 26269 329
508 17969 488
12535 22366 105
9615 9816 537
22387 27354 214
15533 25317 15
18041 23219 622
29972 16226 959
20052 18076 997
22740 26090 330
23012 29318 368
15763 7365 312
21744 3165 505
24132 9723 32
19880 14080 988
19537 28679 92
21798 26109 637
12339 26634 860
29863 849 778
15691 9068 25
21057 3471 542
24579 15147 509
27102 21833 485
11995 23106 762
19386 14418 823
702 4994 317
11030 9005 346
4898 20253 230
28581 22512 844
1128 20517 985
1674 26913 551
5759 22240 747
11903 24966 708
7423 22359 225
5455 15859 102
16683 6658 514
12340 17152 697
11064 7702 945
28144 7460 257
16519 8742 172
8484 16517 577
685 28956 415
14287 11822 848
6353 11114 550
27345 29083 58
2880 3247 710
24081 24956 417
25738 6235 273
10022 15903 961
12818 21495 474
27207 15629 776
29003 24245 870
22105 14003 340
23891 25997 804
26633 26267 16
18639 28715 544
19328 5195 73
22374 12954 801
28417 1255 944
24556 3437 337
26961 1190 814
18747 22869 734
18956 24384 361
29766 15288 778
15206 2580 187
14224 3265 710
6289 17240 783
20566 29247 653
25693 22369 349
8079 27715 616
6873 25771 86
18662 3519 949
8505 4899 732
23140 1652 682
23090 10606 71
22940 19649 713
3579 9332 471
1141 19625 147
26793 450 491
24734 16062 980
17343 8989 94
8755 1983 656
29861 26892 863
27114 29914 145
1408 10913 64
29145 357 589
3228 18207 592
13919 1205 741
29938 2578 902
375 11390 166
10897 27418 817
12449 4054 253
26584 254 319
26552 24308 534
14828 22935 35
15069 9854 82
19793 19763 486
3726 25938 671
8432 3011 693
26260 1210 50
6643 12092 698
13989 25797 707
17399 13597 796
11073 6333 185
5879 103 964
2332 21383 812
2200 29764 28
24691 7425 88
26627 5190 766
25436 1583 767
1964 26937 519
8390 3657 92
11041 2400 514
411 2056 926
14628 12742 134
19950 4433 754
8422 24453 120
1950 21480 293
16474 27238 414
17383 625 250
26142 3720 652
1945 27508 501
6345 18027 893
16175 29254 457
28676 24485 879
10407 11145 176
6070 2072 781
23020 27449 924
23708 10295 77
22842 25602 188
706 20978 711
736 18437 417
15952 7002 800
11294 11833 636
25892 28540 332
15178 15172 472
4431 15463 227
18568 4461 66
4029 14767 816
3972 8063 579
1522 511 265
19023 1086 34
19718 3919 144
18914 13304 954
26785 18935 382
11926 23628 691
26177 7104 557
23112 26087 914
23546 5314 518
19356 15441 319
20465 7 474
13286 2587 822
1874 22539 189
23686 15247 782
11586 12491 971
20881 3703 974
9672 25810 615
14241 19909 493
4266 25885 134
12926 21703 959
7028 13747 345
9490 27605 461
26050 24381 662
10517 26765 779
6534 4731 847
8409 6697 553
19658 1477 429
25168 20128 795
6584 9202 223
25433 24332 599
18781 24021 938
26857 9937 330
27818 1730 886
935 18348 611
22843 12645 492
4802 16380 836
29070 15172 610
13292 10267 713
11493 9918 46
8411 17326 687
10230 6884 864
28458 25161 802
27296 12408 251
26277 24699 209
18490 3916 751
27920 26469 336
24716 3929 491
23056 22636 602
29478 10288 13
20194 7671 517
1602 25302 351
18658 20805 307
16021 3703 192
24992 17003 345
23449 18994 777
19364 19752 935
26310 9393 863
590 18961 347
24760 10813 80
7473 2365 601
23585 25482 338
15757 12078 914
26738 11999 539
17639 27981 334
6980 24672 383
19165 13607 435
17135 5495 483
17013 1878 941
27831 15576 23
3933 21561 870
12638 17471 382
15239 12032 380
24929 786 600
19291 127 381
5002 7371 249
12896 3155 788
7798 10300 636
29506 14187 845
21265 7217 838
1594 14675 759
5077 12550 858
4508 23644 320
27933 7397 247
15491 2007 249
7937 13605 668
11347 26998 745
23887 5572 625
29432 396 230
11032 15133 704
13350 15502 641
728 22311 68
19036 17099 730
15432 11817 403
5490 20289 402
21851 11693 938
26244 10865 127
6090 5459 107
29222 4302 179
21511 2588 294
14996 28733 858
20389 16301 963
14054 23305 931
10367 17546 224
26037 21751 142
25405 2950 461
20221 26445 201
1987 13191 998
9298 26323 630
12629 13161 747
22303 3729 643
28799 26320 732
25162 25911 333
22725 28485 766
8274 26005 173
7756 21969 127
7155 22647 760
2065 17031 571
18672 24867 757
10481 26058 254
6028 20956 854
15391 19743 291
17096 11341 101
23588 1530 434
13194 25796 487
28226 25353 769
8926 15225 40
4794 18246 560
25627 6906 19
4274 23854 474
12834 14335 481
8382 9152 661
25158 20379 180
18037 12517 688
1388 25522 16
24325 7824 169
19690 16383 439
26328 15471 87
22959 27398 142
7194 3406 583
18661 29907 503
10203 22027 812
11521 11389 883
29274 19882 68
11371 15104 363
3749 20362 722
22589 4040 854
16535 17353 854
12402 9279 976
19618 7973 687
26171 3992 293
2714 6471 279
26839 15107 10
15811 14093 374
4189 25937 821
11641 14525 10
4745 9056 103
7401 16879 934
14764 16427 460
13887 21011 541
28733 14620 940
23417 4001 500
15446 15325 485
18476 21436 807
5518 20011 892
2819 21626 668
12274 24023 829
20760 4707 692
13550 29853 742
12025 9067 646
19080 23259 820
19617 24138 815
29429 8086 335
5849 29854 167
12553 9448 373
3391 15606 919
16653 12053 361
5645 10013 772
18266 23013 641
4125 12933 781
15009 2720 962
27226 16059 174
25074 21127 384
21577 14328 29
21597 22786 975
7649 23803 611
2591 9440 170
22128 16196 883
2705 15531 970
20774 26835 145
12181 8092 646
5665 21707 584
10206 20510 57
19939 19109 265
10049 22426 377
10692 26355 213
27229 5990 370
7837 3642 129
16417 25981 265
20607 29756 671
5489 9110 604
17554 25543 674
4150 23268 586
6456 6234 828
4509 20738 751
21079 28493 667
14567 7072 273
768 18167 228
10562 28003 919
18 22898 334
12619 19474 783
28332 23830 588
19457 6290 245
20888 5873 18
13312 16330 720
246 25157 703
22397 12677 343
1220 17594 416
27973 15456 20
25968 29788 934
14218 2722 408
29391 14963 98
20807 24560 166
9778 20032 874
27981 12931 387
23779 24918 985
27534 3507 3
21897 3143 454
19781 28155 756
3558 15756 438
5554 3133 269
22801 3328 394
28830 12771 656
20888 15719 771
19797 10636 297
16358 4525 478
432 211 302
23948 20153 618
11143 25420 862
21381 26187 580
23137 8947 478
20437 8909 350
16011 21268 568
9072 28873 906
11302 29897 745
756 29617 810
11956 26491 803
9844 19750 910
29635 28479 248
1253 25973 807
27444 14589 443
19290 18960 298
861 19670 434
10583 6563 937
22121 23930 11
27436 1862 930
13417 5206 721
7116 28376 404
8150 24260 21
21349 26110 291
1895 27522 284
15601 7861 251
22642 110 442
14081 4105 23
19439 27793 538
26626 26421 905
20105 28261 546
7179 20918 414
23498 25995 933
26793 21645 540
21239 29034 309
21773 28795 967
3530 29482 717
687 12336 902
2960 4133 483
18254 15797 695
3105 18316 311
14542 28020 662
21916 1221 562
11764 7507 361
19989 15083 373
12523 22814 934
22504 13410 550
3124 22363 904
25221 22462 223
21438 28824 558
26156 21294 758
19758 28289 449
11082 24434 699
28267 9260 634
12723 2636 517
15529 23065 347
8187 3978 185
18751 22615 367
22567 8226 965
10651 28342 123
15569 5131 738
18143 8729 572
1969 12061 427
12815 15791 844
16483 23807 819
13465 2390 631
25351 697 599
4928 22211 788
10138 12081 396
2140 22672 133
16374 15549 754
8563 20663 173
15941 24657 254
6083 23074 133
9011 21919 973
20003 18744 249
6725 15535 475
25165 26014 711
19843 7274 423
14240 20202 399
10590 24936 184
21957 11081 769
17337 12513 335
4268 11309 766
16273 11201 201
10639 29303 619
17549 19093 387
16801 27344 199
29093 24619 316
8589 19954 340
28036 3374 681
15536 24085 441
29351 17966 521
18842 18954 940
7466 26853 4
29108 15249 695
29920 22479 64
13923 26861 612
23321 29830 138
9655 5675 316
29648 4004 355
4053 2896 786
8008 6947 107
25490 23983 809
15658 15155 814
12325 2143 233
17986 27739 436
3824 24201 102
18712 23931 92
28356 2749 721
14368 23843 876
7345 8450 296
21566 26613 580
7690 23728 363
20907 25933 94
722 10509 394
19760 27180 956
4475 9384 903
13989 12734 193
19704 25429 215
25605 12947 764
11973 12103 401
1336 25610 781
20025 15575 822
7976 19241 694
24920 7713 170
5999 9450 615
28115 19324 455
22648 3705 628
26158 24149 347
14536 4073 918
16929 26944 766
23597 7789 211
8638 12771 671
8932 7927 311
23310 3830 870
4497 9410 855
10629 11194 721
26563 11893 702
13339 2394 855
23752 16704 840
13324 19376 540
4311 19351 230
23466 18482 58
19755 26953 907
17753 29222 346
6217 10027 435
27624 8467 948
24830 23907 3
12456 29700 327
6560 16317 838
19045 5544 554
25802 7433 9
14516 795 534
8649 10190 576
11830 21202 61
24620 23703 681
11401 7706 92
13478 755 562
2883 26162 870
768 21360 8
11431 4985 452
16565 25135 53
28454 21792 459
910 28631 355
24461 3318 195
7540 23287 30
15425 3829 410
1290 16804 242
18329 790 501
129 20649 876
24531 12293 621
1039 2682 109
10851 29187 648
16709 17000 541
21729 5215 942
295 6139 821
1731 817 175
9085 1672 181
25783 18643 221
10381 21537 926
12831 14967 97
18265 20151 353
21406 18387 633
22088 21036 227
5856 29601 404
12996 12386 963
4626 25151 52
21156 6074 379
16858 22553 299
20751 14263 887
26797 22184 937
8431 8808 555
22663 1113 760
28360 11098 773
16593 23997 122
20831 4020 332
14332 24588 366
27636 29182 271
4592 22249 973
3466 10790 462
22607 17418 998
2090 29830 182
27179 22564 615
22941 7201 141
23885 19164 356
21859 14261 369
25324 3796 996
5736 24179 139
29728 17844 291
25444 24807 742
4923 19192 413
22188 3055 86
24464 20462 255
28364 21962 115
19555 29027 891
15115 686 523
170 12542 889
7038 470 494
26714 18159 867
12476 21020 299
25876 24370 288
11258 17171 668
27844 23172 987
25315 16853 317
29288 2664 781
9941 11279 432
19305 28378 660
16149 20090 621
2167 23445 488
18681 21062 708
3831 12793 896
18902 25098 468
26237 2223 314
24510 14040 500
13706 20094 998
9034 2973 183
13921 25573 274
26895 25121 9
20318 10603 523
19401 13215 908
3549 6426 812
16719 6838 412
6260 11505 827
16995 26522 922
11990 9853 903
6350 26313 164
75 23815 329
7891 18982 160
7067 8461 86
14961 6863 841
25205 29490 451
18393 13058 497
43 549 81
16861 11067 185
5950 7825 834
14441 28013 271
27599 17505 13
1603 16345 268
1879 1650 848
19984 8685 86
5482 28250 1
3903 6560 283
142 10502 539
691 19981 370
14775 23641 538
4003 23181 526
18547 15927 801
24126 2702 564
1689 9201 610
24780 9455 726
12312 1666 84
19509 11484 568
8080 6162 76
21098 27755 72
18188 23662 712
11297 29912 954
24868 15219 283
10608 10372 579
13540 27799 898
23009 2950 867
10732 14666 539
11425 326 260
9567 344 460
21073 438 806
26841 12513 72
4933 4125 456
6052 7661 782
21993 3169 856
14822 18496 398
18637 10578 337
11123 8619 103
19921 19087 135
6423 1938 873
4971 23367 445
20828 6363 517
19528 1894 746
14758 4689 670
19713 29783 844
386 24354 465
21766 28306 154
27556 9778 706
4622 26487 824
6308 19473 798
6014 835 488
3002 20499 401
3290 11153 489
19273 24792 187
638 7165 943
28745 15264 161
24789 20492 178
29229 9203 647
6260 9169 298
28772 29502 9
13136 25354 662
5389 20870 117
18281 7620 369
7732 8121 484
10284 18063 768
16387 17511 232
13321 27529 904
26201 22830 866
20714 26062 121
26374 5510 17
27351 12023 953
20396 7962 976
15491 16204 378
24941 26380 470
29812 17253 564
7141 26042 999
3487 15077 389
28724 7378 301
2912 12987 907
28782 7412 667
5195 8596 807
21242 1400 42
12888 19334 731
27466 11539 557
9476 17172 89
24941 7408 549
8781 23138 32
14733 12309 675
23517 13721 743
23145 24515 576
3497 22922 735
10624 11270 6
24859 3980 544
14865 22475 359
11527 11085 178
7517 5421 140
15584 175 144
27637 18438 72
13910 28788 176
19839 13085 24
28899 25851 914
13642 10849 821
2211 11450 35
14173 27142 711
848 19748 234
18456 10055 368
18918 16373 718
15256 2027 955
19022 23762 522
25337 9754 334
8687 16440 783
14021 26437 733
8518 29157 451
11613 12767 447
10638 2231 521
10083 6447 759
10264 7735 574
14150 8511 198
8575 8581 837
27957 23664 24
19780 19298 331
1383 17770 548
12339 1003 458
5251 28059 419
25321 20736 523
3122 3152 225
22044 13500 234
6676 14119 394
15618 26213 577
2554 26954 445
13343 24946 359
28913 24614 463
11215 22077 902
14253 27984 620
18620 2307 958
14877 16935 612
25559 16777 437
3513 4035 129
2459 15100 570
14135 5481 724
29488 10647 883
8107 4749 156
2821 29073 357
21166 25179 441
23108 3770 499
24617 6787 974
2190 29180 547
1321 9283 206
26298 25791 610
28887 21706 244
19474 17961 359
16260 8267 544
26561 23479 198
12858 26453 611
28339 28525 137
18785 6726 193
25695 14434 868
12612 1026 164
20123 5686 848
357 27708 501
5843 19201 563
28554 20610 56
868 24692 373
13162 14613 225
8807 15623 923
24683 20513 461
25215 5667 840
12458 18045 976
22357 10254 378
12738 9296 465
18851 26575 872
24393 25027 400
15954 565 304
28571 17695 838
25902 1427 445
27447 1433 229
4722 17490 201
12877 24317 303
18067 19495 887
14720 12137 548
24220 18404 907
28150 6560 138
17186 22542 604
13856 24934 99
18454 27862 408
25794 915 374
19392 13820 142
4945 17221 647
11268 23622 438
14705 25476 799
7340 7378 412
3584 24922 781
17665 29882 102
675 26687 96
17877 25249 763
26806 28292 565
20074 11013 866
195 28098 265
4207 19994 579
2445 21406 772
16795 20357 490
23862 11695 649
2776 29636 838
26723 25292 601
14193 23512 200
4732 19837 253
16927 29278 711
29632 1105 298
13207 13853 539
15034 24370 137
18214 28405 88
4680 20810 880
17269 7674 833
11944 26138 502
23115 17859 359
15468 7728 153
19807 20369 457
23147 9810 237
27693 29695 233
16635 22607 620
29941 6633 440
8812 8113 627
4419 19044 94
15043 26196 618
10914 8821 697
17606 13782 318
23712 13795 1000
6822 13177 955
11872 14463 274
12121 4631 591
25320 4641 687
15765 18351 262
17739 11804 869
7541 9609 440
27694 26132 846
4039 11682 622
1188 19903 109
6254 7366 288
15574 22295 132
29647 22262 985
13386 7042 770
16646 10538 741
19333 4619 315
5269 5112 50
11871 3317 342
11799 26014 601
21239 3628 557
20885 2901 538
2575 19250 344
21040 5530 856
2754 14814 168
23401 18604 402
21053 21375 969
10520 2858 552
28022 20076 375
22082 10054 764
12180 3627 54
26911 19620 962
13985 27327 788
10702 1669 547
1526 28040 813
1242 12956 408
28725 307 146
15297 7381 776
10780 23105 419
9102 28662 392
10568 12669 432
3497 28545 974
10244 13862 917
9188 15204 632
222 2250 923
8949 5147 688
25777 23636 582
17382 837 634
19232 18099 738
8262 3720 586
6637 8970 808
26994 17141 874
8226 12427 840
10229 29779 382
12409 9132 342
10790 5937 909
20136 28041 565
28449 13679 960
18062 28181 10
14961 28587 349
22422 1342 46
16543 12517 35
29492 15067 147
643 17123 291
2783 14946 687
17853 17341 13
12446 29496 497
12608 6983 92
22965 29449 558
1585 2991 776
22891 25685 12
28708 23582 542
7965 17683 362
25264 21569 387
25634 1020 401
19162 23532 916
3858 18943 452
4109 6076 641
24617 2110 702
4157 21910 593
753 5888 916
7117 11419 464
20573 28887 657
16157 22635 634
23765 23252 695
12113 191 181
2002 14230 691
1226 4542 335
1985 13827 271
1491 19436 14
7730 24951 131
29944 16699 507
7146 8431 444
11721 1724 79
10867 15698 689
23815 5697 897
20984 14772 26
9550 13180 937
27536 6112 231
29453 1571 426
13616 4636 835
6848 22373 24
26124 23230 255
19939 20730 260
1957 4861 798
1523 29700 268
29332 3969 457
15552 3185 413
2987 26735 791
29946 27603 675
12064 13490 363
12660 29797 185
29705 29495 338
28160 24365 644
12692 1129 967
28660 18138 832
2012 28975 922
26433 15103 727
28311 7593 135
24761 27319 628
4024 26072 295
29720 28133 732
29625 21181 20
16026 6972 849
19774 10449 984
20160 26646 913
19019 3153 895
11556 9134 93
23304 21002 220
3138 28802 887
18909 23982 503
23424 27531 530
12766 27572 127
12814 24240 879
15506 6333 261
1101 793 634
27272 680 827
17116 22618 545
8807 8443 101
16902 19713 35
10614 17321 397
617 1296 454
19973 13545 230
19305 22131 3
15213 2776 418
12754 17276 303
24423 29165 938
188 4050 829
17667 15084 866
2801 24952 948
2150 22675 386
29750 14908 772
98 16703 804
19190 15740 962
16774 19970 20
12608 8618 376
18609 13502 858
3467 10903 847
2519 3534 183
25379 4792 447
1122 13439 917
5009 24215 111
13967 13472 457
23688 7337 774
26692 11496 204
28743 17783 301
9117 1889 646
22119 19111 79
27577 21138 234
8425 29950 290
4905 831 932
8291 25557 869
9025 27437 734
10311 14610 473
27600 10801 5
19600 8863 894
25341 8944 270
17391 20397 295
25830 6684 892
29456 17554 161
2289 23575 182
24782 11018 837
91 13887 427
7753 7782 312
13270 17723 430
12349 18513 72
3683 3101 525
9390 19169 959
11447 23230 802
17013 11615 794
8639 1408 8
22197 17498 622
19368 21074 694
18522 14934 610
19506 3172 821
23645 24219 323
917 13146 377
6782 28164 546
27927 11155 994
15534 3543 732
8472 19557 729
4454 10290 95
13821 1832 207
1308 24199 876
24464 17007 344
4304 15038 830
28075 8545 897
7211 23672 267
11075 9716 934
29857 21857 229
28125 6440 964
477 7079 235
3106 6988 303
4267 23037 448
2531 11266 980
25495 20576 280
23106 21853 965
23538 26927 342
29552 27772 349
15650 850 183
10347 27602 169
8081 19183 35
6719 13507 561
8603 6987 3
6095 10574 54
17510 10395 830
3720 7761 210
1664 23985 60
26284 25403 735
27062 2494 5
15860 2364 625
14054 21876 289
28799 25969 955
28904 20906 232
20079 26369 534
19667 5143 423
23596 6662 317
9550 15808 916
18923 10443 545
13968 26411 18
17262 17869 609
3442 12016 162
19184 16705 481
7507 21219 331
29150 27634 275
25827 5737 439
15241 27546 731
14188 24601 731
19288 5884 898
21360 11482 36
11131 20317 429
21311 16212 200
13844 27863 550
3216 29281 144
15198 13327 3
16630 4881 765
17975 2714 430
28434 21612 901
44 29413 361
18696 29553 735
7786 22572 445
6448 15921 368
8815 8776 362
16617 9316 933
7688 28893 709
15756 19366 421
295 26556 873
29953 18072 287
11853 22376 284
426 20234 27
24684 946 631
26563 1332 834
14135 27422 959
4774 28744 828
26149 1756 356
24845 11066 442
6635 2727 620
18431 17829 64
25484 14016 641
24025 14937 282
4839 24568 876
17590 23815 98
15282 9041 517
24151 17626 873
23368 5026 617
2951 28045 531
2967 10057 998
6424 4413 573
116 15331 412
26936 10776 469
24493 1432 594
92 20775 740
21539 6649 987
25640 29502 923
29150 19442 303
20832 6225 944
14363 12080 257
14644 23367 367
4346 5242 72
18305 1935 347
8906 21160 958
14486 2218 219
25351 23903 337
21637 16532 660
2115 15203 40
15407 5594 949
1049 1815 85
3077 8823 664
25437 15336 474
19201 21968 413
22722 18946 637
24838 5623 805
28319 21836 476
12925 24431 992
10217 23722 20
5779 7758 170
18260 11837 355
297 11192 970
8406 526 713
2261 615 419
1530 14954 522
4463 1404 96
29669 7535 117
4629 27142 180
4268 25362 849
4236 12168 324
26112 20558 742
7661 29923 20
9903 24824 254
1600 10483 756
29233 10443 99
17055 386 428
2027 13008 593
21652 19125 452
3532 11390 48
18546 25806 231
22057 7727 837
15177 431 459
24147 21882 588
8965 25360 732
16008 11131 515
25021 21882 404
29221 8 921
26518 14101 426
13474 27429 968
18693 26790 95
28945 18555 468
16580 20748 5
4622 6164 291
2092 26274 71
23214 1728 518
29329 22989 550
4347 9851 280
4939 19978 556
22890 10072 794
28709 11918 959
24331 112 136
24146 27309 988
29708 21634 480
28998 12556 718
11380 29439 820
29486 23561 421
29803 18239 273
4495 12400 761
28258 23278 991
19218 27929 215
17182 15357 652
26096 28812 308
23815 15596 332
25709 9005 512
21003 21171 600
286 6914 327
5478 9446 737
25830 11969 791
19465 28985 891
20842 24834 300
8196 23434 322
26457 24077 997
309 5309 739
16660 5407 623
27563 14058 497
19564 26756 737
12820 19844 587
26176 1879 703
8888 19040 524
13761 20348 611
9167 6830 536
12466 22801 460
25216 29996 727
27115 14908 235
9991 922 820
28595 22658 89
6195 21177 236
5737 9139 715
9550 2027 35
19371 13400 683
10247 15633 264
13359 26744 362
456 2776 541
25723 2008 138
11035 18692 832
21132 9482 707
9666 11664 283
16149 29259 1
10147 21866 371
17892 11158 157
29259 12159 988
1598 22663 137
5162 25185 130
19923 3068 276
17700 4842 834
29532 8158 987
18871 1882 893
20611 12397 240
17802 7187 297
2629 23553 941
28574 13267 632
18433 14341 468
1194 26960 912
20249 8466 171
12914 2990 47
5041 19344 449
3716 3970 36
6921 1636 202
3246 13490 477
19384 8109 668
21792 4160 177
15637 10983 474
11300 20130 67
2825 29195 582
20689 29470 610
647 11391 298
28943 4493 406
2183 25766 859
24223 28613 379
27438 5941 177
859 22901 802
262 11090 918
18782 11899 620
25341 2601 138
28795 27552 214
28324 21024 186
6238 15275 105
19326 5935 926
17441 18442 640
20337 18395 451
20228 23014 760
12089 24167 49
26009 25944 67
18308 27707 550
15559 16673 379
26054 25408 990
10242 610 830
20198 4946 615
28252 24326 438
8421 10572 924
12388 7018 911
18717 15935 298
9355 29049 915
16389 29712 749
16594 8431 904
11841 1111 164
5623 18094 956
14825 24243 852
26818 12170 288
15393 2419 234
4545 24638 217
14348 20659 223
24207 26490 653
3050 26682 858
17319 17645 163
24368 16280 526
28048 29497 560
6792 4604 969
16536 15111 328
8833 22553 147
16788 9312 746
1543 14791 308
28556 12047 360
15415 13754 138
29872 9375 294
29025 24143 731
16291 25759 438
4298 3090 219
20492 5361 126
14104 21287 11
1743 17241 772
2542 23727 837
792 17053 907
15948 15982 68
1053 13464 280
12931 18610 837
19792 4321 519
27832 19367 690
8252 6123 715
9483 11911 887
23538 23774 333
24832 1238 311
27852 11299 317
4041 1111 380
16870 11126 628
27170 16205 825
22731 29790 801
17530 6800 318
23489 9087 80
8492 9211 847
17389 4715 558
12038 12126 296
22830 23838 529
24787 20674 810
14363 21948 680
1366 16170 41
3582 27068 168
9899 27946 98
2784 8059 788
21072 17149 34
9670 2145 527
2807 29855 287
9828 12530 52
11532 8010 853
5165 25452 920
5540 12501 889
19228 6378 658
16164 26699 705
18275 246 505
8461 11153 114
22978 1217 223
29521 17086 516
11855 4382 934
11020 937 322
12244 28071 246
25415 17669 296
27649 11089 207
5377 29300 731
23040 9683 381
2194 17259 321
27821 23269 612
13917 25435 422
4126 26702 812
17796 443 661
26776 15423 855
18102 13634 861
23489 6452 114
2188 2046 149
4359 10840 241
17624 21873 723
16419 8654 940
7763 28616 324
23773 14037 703
22705 28157 153
16427 437 798
9819 12930 141
5376 22625 174
20062 15106 659
28829 27503 623
7953 24769 426
27432 2335 765
8823 18435 218
13003 28333 856
15272 7712 410
23130 9253 34
23803 24853 875
26387 24705 998
18325 13750 26
29571 22683 487
27482 11969 624
15503 21060 792
9745 4392 296
2174 14492 926
12619 17936 117
23772 26380 387
16783 23899 636
1545 25677 595
3952 20648 125
20841 22888 716
1222 18168 879
5638 1375 457
22942 27717 590
25685 18091 293
20224 15795 544
12255 19748 104
10337 24870 459
21946 15334 500
24009 24878 661
9375 4455 750
26375 17459 489
27676 5572 32
12270 21007 15
1776 25881 211
15914 21280 852
4659 23819 422
11071 9829 962
7155 4166 881
15040 3155 634
4291 9890 379
1551 25579 731
392 19444 35
9815 4463 80
7666 28804 426
25276 17581 98
29209 11632 485
4443 25030 964
28430 25924 768
5992 21795 322
6249 20570 5
3940 5716 403
682 18081 351
14619 13207 135
27433 26440 761
24477 29281 203
2015 8471 136
5937 8292 863
3968 9185 489
11362 23694 580
3313 24402 148
6633 4142 92
17400 10896 958
26248 221 403
26829 24533 397
29401 26738 593
19909 12455 604
29063 9730 999
6490 26972 768
8465 1620 123
11412 29251 811
921 25456 639
28828 1900 86
8931 28787 282
24634 25228 36
11481 11605 811
13521 15000 107
27023 25902 304
10602 17872 914
18688 27870 283
1841 267 262
19454 15402 161
9013 2277 350
20465 6982 557
15432 17060 83
10074 21584 148
13408 8446 720
18917 24302 211
22499 25606 573
16064 21009 785
25064 19029 931
6245 6890 259
23568 22320 472
9710 9307 211
1324 25332 41
8935 6656 177
821 23102 886
7403 24140 760
2957 18972 478
12640 22731 170
11023 28780 479
21243 14516 102
13756 11532 625
11624 6240 218
15716 22341 703
4475 21206 424
20885 13628 216
25336 19164 593
3190 23215 467
22300 17608 818
24693 13341 300
14648 12891 538
5878 5086 60
15624 12322 305
14786 3346 437
22411 1187 52
23447 22045 247
12100 12484 103
5043 21269 599
26526 23786 548
7358 10960 132
26454 10327 525
29511 4383 45
3614 22636 306
16478 20228 470
28007 22534 745
9606 28580 860
2906 1382 571
13978 15318 714
9141 9461 147
24395 25235 220
16664 12987 15
13960 10401 875
11869 19581 131
18196 1765 818
6024 18704 844
12758 11161 165
20904 26992 5
6051 14908 81
20880 23815 35
18326 790 337
26803 18256 31
4639 24269 355
10657 5521 481
21616 22517 473
5116 17729 10
4431 11794 691
19137 16076 417
19775 7612 381
24278 10361 279
3235 15808 588
14425 18255 295
9540 13024 388
29334 9589 172
26221 21706 527
11657 4470 896
5677 18564 575
22966 7112 751
28759 2715 513
24391 8788 489
14105 22204 522
6710 11442 403
20291 16769 219
12548 29050 709
15457 25566 476
1764 29874 233
20021 21788 279
20732 17699 507
24164 6754 762
1629 97 352
19098 10694 983
14706 26399 575
10725 13177 823
23239 7031 359
8906 19300 255
8392 15048 8
26720 4485 934
24022 9443 171
18384 1234 6
22544 19653 778
20470 19779 827
14984 18391 445
23956 18647 809
23183 21811 285
17696 22531 879
7404 3917 453
16902 6106 82
24001 13576 501
3428 11525 26
23518 8810 773
24698 28216 23
8687 12937 123
12523 14296 766
19804 14357 975
19739 11237 181
10969 4572 564
3098 25926 378
8272 24300 920
29139 6612 358
19645 13716 345
2151 18882 900
29190 12438 361
1189 17674 281
28400 21022 23
22613 27251 995
6391 13051 244
13529 6326 873
7149 25591 767
24773 2553 691
20672 11280 396
18148 14075 128
10451 14622 864
29619 29323 594
24462 5028 392
26807 19965 78
16452 26556 28
29603 10333 651
26710 20368 505
25728 8964 260
2914 27195 961
26249 7609 265
11764 12262 146
13314 27362 574
11427 693 41
19844 18931 558
25889 22376 24
6348 15874 889
29230 5873 956
5201 24755 108
6026 17991 265
3863 28548 569
2887 26126 12
9150 6986 644
24905 1123 410
21992 8519 183
13812 3278 249
23302 26203 430
2853 3833 916
20000 15243 472
9053 15273 86
291 23478 952
18488 19733 862
10785 19457 881
19871 6026 468
7756 23991 498
29262 26200 169
19967 24435 369
16125 27089 789
19868 17495 713
10601 4023 104
14728 21454 392
27133 15200 180
351 10193 234
26527 8541 998
23086 18245 279
24359 4872 99
19536 18819 362
6149 18991 581
20301 1535 904
13961 16574 861
6940 21544 699
22494 28150 596
638 24942 352
17239 19045 613
19441 12410 874
715 26748 440
11224 26442 673
13385 23239 191
27603 21143 671
14899 22562 95
13177 24337 13
9186 29097 278
26824 21103 973
4664 21416 457
9753 11497 95
10514 4972 213
23207 17647 554
17134 7507 383
28554 17651 588
5601 18270 745
12778 7571 889
26926 263 433
14840 7408 651
22377 4809 430
1530 12546 614
19600 4644 178
5082 19743 713
23009 19974 66
5804 9313 762
20018 28197 87
25550 4445 864
11332 2872 87
965 347 688
29288 26766 496
18906 22699 609
754 14151 933
18622 18752 358
17166 16186 342
15174 521 815
11108 7545 151
17298 28514 304
18083 2519 830
27009 23528 150
4743 105 101
6028 1384 129
7278 23412 172
12489 21657 684
6235 10179 90
26336 15177 284
3218 18427 668
29089 8423 335
19497 8770 823
22341 1102 123
28089 277 316
19111 23283 455
27782 5058 279
23111 16459 589
22533 24192 94
15975 23159 77
22338 24123 692
27157 16944 461
4621 21661 389
29627 18522 956
5096 28114 506
4425 13197 576
26102 22528 878
27412 23420 870
6528 13206 739
7107 13433 752
28922 28222 410
11235 8066 682
17098 23456 499
20634 23116 879
5074 6756 888
6393 2128 933
13694 6513 532
28680 24113 221
27131 17981 176
17864 10400 103
16818 20532 389
24411 26369 478
19603 2373 373
25580 1565 136
6179 18752 630
13813 28340 478
25875 28622 754
14871 3542 835
6535 24808 664
18050 24799 79
25924 8519 177
3947 465 801
9183 4152 179
13232 10467 284
15526 20644 440
22711 19400 905
16096 20280 359
689 17919 910
19489 4124 374
5962 2870 894
23842 3792 782
28917 24291 295
18983 25179 812
22215 7255 962
2427 22045 738
18560 1464 917
21767 17336 830
24213 67 642
21175 17688 764
24531 19881 330
5923 8089 276
12757 11786 121
23354 16910 997
2219 13937 129
13395 11253 948
25176 26687 913
16611 29368 528
26235 22337 675
8669 23301 851
13431 19931 831
6111 12651 815
21080 23377 507
19011 23101 884
20001 26852 479
21617 27473 709
1143 16001 639
26958 18258 904
4677 8970 521
28914 13544 948
11383 21308 897
4740 12565 639
24225 22927 66
14625 2460 496
18450 8288 348
20928 11225 125
20808 12423 349
26036 26564 364
7421 26433 210
16189 20494 240
21255 21755 411
10001 16343 435
241 2053 725
25287 27114 921
9091 22499 49
2890 7133 170
11794 23211 501
13151 1119 561
26594 13685 354
10964 18486 788
21365 16212 250
6950 4294 118
24949 16844 564
16468 5816 869
19630 22810 499
14134 5157 695
2491 23788 863
22672 24543 380
146 73 358
2361 2204 780
14778 8054 619
11369 25151 178
27736 11747 320
23737 354 657
28089 27518 769
15130 20597 760
1738 1352 159
2164 17599 796
12542 3704 621
7325 27918 313
9219 6239 286
13651 28640 493
12169 24753 146
17661 936 171
6343 11676 265
546 11643 734
26217 22209 511
19564 533 460
18193 1397 58
19331 11539 171
21859 27158 465
13918 16055 666
23279 4622 859
18012 6770 12
5948 20390 697
21412 10138 955
11845 26967 485
23622 21722 809
17847 4826 167
22895 2671 574
21965 3897 856
19641 23046 781
26228 22736 631
28594 19655 18
1799 10253 164
20608 14537 365
10479 937 243
17996 5480 438
12450 21741 96
21234 24810 987
27116 21351 329
6325 22632 281
1482 2102 409
29677 20556 454
20598 10206 375
26956 24823 275
17396 22653 925
26187 24318 444
23749 783 444
29980 24463 19
11529 7567 303
4132 8119 995
2013 12114 256
29617 544 634
14673 26535 814
21535 17532 93
8654 22864 974
22039 20626 639
23954 1242 98
26905 24342 58
3666 24723 1
20508 1506 53
12210 13512 903
14061 25177 954
8837 12343 998
19066 26510 34
10596 27134 149
24885 15475 27
23843 18485 729
13325 3786 378
2315 7548 878
1082 6829 959
14805 27478 874
24607 6647 332
22045 27449 114
22508 29327 546
12768 29232 552
21654 22374 34
13884 27600 32
27668 4967 723
9677 12817 326
8631 29781 63
1681 2741 478
27601 6996 577
28331 6670 894
29476 22028 612
2622 24767 242
13703 22447 560
390 8341 148
18299 27643 483
1620 8864 706
14423 27928 691
25381 7700 436
20582 15229 864
27120 24585 921
20227 5027 292
22901 19436 239
13174 6099 164
18190 15896 499
13022 22669 162
15378 11080 89
3699 24689 340
3173 11656 811
27592 21260 619
8408 15898 662
16800 4687 594
28981 26652 370
5531 21858 450
26257 28513 831
7059 10714 954
26975 8247 339
2841 17957 346
15496 3091 952
15796 516 944
13895 14044 21
10186 21292 412
14173 29107 244
18627 5844 504
2365 25799 465
10858 5722 557
15037 16217 586
20465 22152 949
10995 16669 180
22626 19522 284
25327 2838 473
24059 9559 199
26420 2130 919
18753 27123 658
6492 15154 418
26888 12413 103
7722 27782 941
6742 120 547
2401 21549 886
17692 7037 68
3109 7541 157
4986 4611 276
29272 20455 952
8841 17798 99
10816 20692 185
10341 28401 102
3718 11509 291
14304 3483 450
26983 29104 646
22788 2478 802
28987 17420 423
23675 28966 310
28370 11150 413
27253 8143 324
28006 21333 328
29004 17255 894
21233 8914 313
6231 26167 333
4094 9095 128
6466 23822 567
24004 3879 898
28284 20996 436
5423 27346 271
20970 2058 1
15235 15658 793
26404 16138 93
3518 20416 912
20063 13480 218
1361 16826 173
5120 3456 517
26859 23092 373
27587 7600 522
17167 20748 693
1107 7799 421
8282 8193 541
19358 28213 103
8666 24896 535
25936 9486 229
25219 11430 709
8983 12248 226
4746 16664 409
13096 15377 146
8477 23345 853
19878 27974 409
7668 23239 102
5472 23966 626
9489 10638 332
1343 14053 350
17954 2284 347
21572 11076 312
15254 23629 767
9470 10632 160
18079 5607 970
13058 17036 4
24753 17601 918
15641 26800 664
3122 2487 791
7146 29557 741
4731 10349 871
837 29830 639
27227 3837 393
22705 7372 129
26213 22425 968
17530 22376 878
7863 28201 619
27320 368 644
20878 18923 239
25165 26478 302
9103 265 668
27218 8419 351
23684 4979 484
11092 4831 130
8466 2626 203
5114 17185 379
23519 13365 737
10600 11969 553
13655 13314 807
28900 10328 422
2079 24955 440
18464 22507 656
5033 23071 407
5117 16861 557
11982 17352 966
2049 28886 456
17717 8214 245
27805 28639 867
3259 8357 199
19422 8414 795
29330 23214 48
19728 19059 689
24267 4073 298
19236 23292 397
15362 27925 306
10158 21379 767
28611 753 782
23900 21699 993
11250 10128 23
17957 8610 481
5439 8839 701
24323 24893 921
26064 6817 799
225 5181 709
16664 11383 16
19524 28335 762
14974 10996 190
11737 17410 908
37 9225 43
25731 18026 191
28837 27014 914
1553 10800 839
9669 2482 923
1146 19950 509
22650 4864 756
13310 10603 541
17552 16305 37
9591 16943 479
18063 16663 307
5601 103 466
7691 20737 56
17279 15521 450
17433 25584 285
24956 29439 898
20850 25418 966
1451 2035 284
13506 4467 584
25275 18656 70
28603 19233 87
7590 9086 473
8463 12285 40
27080 2848 573
4563 10441 663
22609 17195 14
22942 15105 649
24867 19485 639
28985 7752 97
17708 19616 170
22272 11320 416
5727 13295 782
8185 26127 124
29523 10671 297
5838 18217 917
26333 18930 262
2987 20868 821
6241 22952 123
12960 4240 244
4029 1390 607
4931 2968 836
23371 14991 853
11948 5660 244
5534 25721 193
163 28634 667
782 24656 670
9332 25665 878
23350 16850 735
13648 18685 733
6371 24552 764
12093 29914 402
18319 5241 934
3025 27767 620
27571 29496 839
14439 17328 999
26177 675 504
13546 19029 870
29448 9198 775
73 1810 907
3056 26932 428
8291 26389 680
11955 28177 850
18182 3013 818
2416 21507 689
10227 4068 803
21214 26312 217
12456 17613 441
17465 1766 867
25356 5691 30
18725 4484 395
7477 18189 837
11743 18587 508
19461 28363 532
10811 24940 266
7122 14276 647
6856 3243 535
4795 23889 296
15020 8061 941
28209 23521 787
19380 12375 977
10327 6440 462
3803 17890 829
25927 21837 674
6587 24498 48
27050 26380 740
11161 11197 132
22183 17023 277
13232 13534 193
17886 9013 377
16634 748 690
21553 28875 530
18514 28962 693
14213 3635 948
2436 26180 514
24222 11482 916
18022 26692 188
3584 10521 520
20629 4418 125
4153 20118 150
21031 6532 853
14583 24888 679
21985 15580 206
15207 11326 392
10565 18277 171
18332 5076 68
13047 22547 774
2133 20738 309
29008 6272 700
3509 27404 742
17276 10192 200
21811 24201 628
14356 26506 271
25950 8393 866
23954 14738 303
12210 13611 582
18825 24152 356
21633 24469 807
9926 18544 302
10895 8593 671
14455 11239 273
23609 8631 552
10678 28422 81
13718 15343 449
28076 417 537
11492 8110 246
20141 7453 859
22364 8230 349
11870 8411 551
471 9281 260
22800 6832 799
5613 16504 748
29356 8869 676
8496 20845 287
29145 26696 114
13405 20763 117
25988 27520 629
27767 12936 5
18581 13351 729
14487 1904 63
23255 803 457
7470 18169 893
7781 28887 367
3594 29615 833
1303 7052 442
24768 21691 968
2667 13530 378
24214 22772 279
8462 11797 593
19619 3797 38
28634 8544 287
26482 29937 336
9726 3810 15
12368 28137 308
15327 4028 866
2210 6649 863
15915 11049 857
29531 5330 540
27256 2743 259
27939 27610 415
5330 24809 387
6133 957 550
17058 18051 310
26542 6798 834
17513 25526 353
23055 29234 70
10187 9010 665
12505 26567 339
8774 14372 858
1513 26038 374
2225 7574 619
24974 16067 938
1084 28649 830
15059 15474 101
14131 8076 811
19764 16932 721
3188 29190 417
19493 18354 800
9827 9022 78
22859 18291 885
4521 26331 752
4339 27452 880
24219 1454 470
10413 10393 7
24905 8174 28
5343 3246 404
26373 12297 567
17633 6788 939
17220 10396 573
25582 7214 336
1700 22147 843
29608 13385 224
5899 14815 16
14499 5994 462
18978 21932 97
20506 28332 817
26204 1854 852
23883 4500 709
29086 7477 850
3560 24492 508
28728 19340 705
26789 11438 591
2660 19592 228
811 15066 9
13068 13059 634
26678 11392 183
19637 11607 346
485 19253 269
22523 22081 605
12889 23492 474
29288 27858 492
20789 17850 792
2111 1312 385
29692 18476 941
6727 28 218
28201 1480 75
28113 27435 399
23626 21691 608
28570 25649 767
915 26686 350
12437 15754 860
742 6613 458
8874 2675 884
20045 5254 777
21201 7973 326
2279 24435 149
13816 25018 434
25885 24873 841
9807 20069 4
8448 1246 738
1022 7413 876
26258 10353 422
11016 18819 659
2452 17314 312
27189 4587 941
28146 15236 547
6355 27813 406
11670 19577 346
17775 1027 542
15509 4131 269
3781 26515 982
22251 9306 415
28991 23834 538
25003 13743 663
1594 10737 763
11584 29411 526
15695 29929 349
18093 16838 517
26727 13506 321
23214 4208 1000
9172 3603 882
5987 19400 736
19295 5645 686
15555 19436 496
21819 17590 940
5360 14497 962
13534 711 683
18078 21266 305
1704 17533 424
19650 13639 18
14544 24037 826
28956 1780 696
29123 1809 169
25745 4962 538
10860 20159 383
4693 6390 42
10533 23057 740
10761 17518 95
22132 19873 777
5964 16224 958
5739 11904 645
2045 2727 633
8064 29534 699
11167 27992 358
9947 21842 273
19562 29023 828
3799 23562 718
29804 11309 98
767 4595 358
28794 20705 733
5378 1360 626
25441 13873 973
19266 27879 928
11486 12740 9
23390 12630 277
26036 24265 668
8007 29460 717
5061 7265 483
7320 22115 562
25198 19948 173
7094 22400 3
10531 1867 964
7186 18752 197
19138 26456 740
21880 23151 600
8627 14378 360
12369 11755 182
21963 29231 828
22109 26587 138
16707 587 398
2876 19731 868
20415 10051 620
9193 186 121
4645 15932 696
29713 1090 317
11554 7519 47
25505 2692 282
11507 10110 421
17554 15709 339
29560 27230 49
4859 16444 261
8906 13471 939
13506 19515 89
19756 7076 231
7133 27530 753
18255 22093 816
10799 5242 646
29223 4498 654
16412 9334 438
15940 15419 235
3494 21033 73
18552 26793 302
19777 20056 707
9164 23568 567
8163 23767 950
15284 996 496
1412 16566 25
26236 23876 584
11035 445 231
12068 23061 262
12439 26691 88
15518 21034 8
21304 4523 55
8269 15577 323
13535 20849 881
11928 20590 76
14169 9582 803
10979 24493 611
25096 12480 283
13128 22245 547
8466 29325 274
14113 3264 467
27173 19618 986
29605 7283 471
27896 26879 823
28830 17306 20
20398 27196 805
7700 10480 543
26207 3218 68
10951 6649 524
1418 21177 470
20138 6072 163
26424 17030 736
12031 9613 326
28951 22018 136
9982 23315 378
25443 24665 476
1822 15256 283
6206 8003 748
28312 2392 489
20535 25700 883
26425 15515 249
27565 23280 764
24319 29703 141
25652 29835 505
25176 2939 755
13167 2710 820
12043 11971 579
12346 8988 230
22661 12497 881
12269 5897 758
12917 23435 45
21473 21629 122
9005 14108 601
29604 15603 213
18397 22782 784
316 29029 651
13819 5435 902
11335 21667 596
1323 9783 308
7675 9072 372
27724 18843 816
27276 11755 471
1804 16051 100
6458 12093 17
23211 3147 116
28903 15532 490
13663 24754 294
17464 9941 656
4826 19079 46
27654 21089 521
17822 4461 477
12913 11625 130
29124 29690 4
27008 18030 248
14696 15629 821
8510 2026 179
72 9766 532
26733 12493 284
1346 25389 830
13427 24525 381
6934 13870 841
23482 25365 625
3064 21220 29
15207 21955 580
2900 26723 162
8564 3412 534
23073 9206 991
28752 2322 502
29666 20861 980
28503 16837 470
8932 2221 736
9802 18206 113
13308 7765 225
10167 17293 240
5519 23878 764
15950 8073 945
14705 3158 929
14307 12920 801
14080 20968 875
13234 7480 698
408 1466 192
10883 2356 312
25696 4990 530
6795 16078 371
14080 24167 519
21386 7966 451
24840 6412 39
19083 20241 524
4318 22754 199
1385 15001 832
11951 18445 109
17682 6910 609
10875 14906 716
18965 22088 566
12633 11839 809
25386 14192 831
12518 8002 255
23826 16947 293
10754 27053 20
18167 17979 711
1778 27480 670
15117 15703 371
22836 15923 187
24791 29115 633
13414 9498 144
11960 5551 329
24510 751 459
9424 9810 266
17446 2960 259
21288 18651 933
28504 8507 953
20046 13491 529
20373 24759 57
26988 27914 305
28628 23429 57
14332 21850 879
7469 25340 635
7967 28245 348
8838 5125 524
19822 11852 781
25500 12820 228
3261 21737 472
18652 27259 816
18023 20643 514
5977 8050 809
8552 12619 92
12555 23100 203
19541 6320 316
28659 1982 678
4698 18664 282
12697 22744 455
29415 6764 23
10078 940 933
20814 27009 843
27685 3322 525
27002 7449 836
27773 2921 892
28232 28715 738
2546 27342 915
24664 18010 596
10764 3501 220
25373 24342 119
5671 18265 95
14142 25161 638
26829 13233 673
8928 25206 669
8025 970 817
22530 25758 869
20971 169 967
7349 17071 749
21404 22553 508
28518 14797 213
4494 14981 249
14253 6311 196
14813 4088 398
11150 11598 495
8076 5140 968
10612 26527 619
2891 27093 65
7201 21245 571
929 19964 930
17527 25488 742
26241 6594 464
21659 22370 589
8414 3036 808
11071 24146 495
16469 24639 581
17020 29599 348
24015 12668 949
21441 23759 683
2301 4981 138
13511 695 959
24816 23642 396
15547 7591 117
27334 22992 375
22842 19499 768
9269 21825 465
523 24693 250
6952 27984 156
25263 7213 893
28163 16778 675
5867 27737 829
24153 18196 191
7201 20519 877
3117 22709 128
27540 5850 212
10916 25686 264
14584 17039 897
26814 7264 121
4486 26076 91
7198 13306 915
5962 24604 547
18805 10141 128
8152 11204 895
3720 6705 334
25165 21194 434
28937 8858 880
21610 3821 765
1245 17649 460
1367 18847 118
22899 21838 723
7483 2450 60
23712 4522 329
22632 12114 250
17705 2806 521
19085 9787 825
1518 17716 831
21264 29109 456
8661 9706 320
14041 14267 345
322 8983 72
21579 21070 217
16849 19339 767
5831 13269 60
9908 9936 45
25047 6657 548
7283 2469 120
600 25810 640
21951 2531 870
9759 23136 239
677 3096 205
13971 7545 52
20673 13072 83
18776 8557 60
27881 8830 394
6347 28897 414
12754 10619 11
11066 22801 222
10621 15701 275
9192 6749 695
13667 12641 466
17824 27736 52
4954 3946 855
25918 16253 517
14873 9409 272
22947 22843 309
28416 5242 805
3543 24274 201
17294 9435 776
9712 5664 725
21595 19816 518
3192 27867 771
13415 7411 919
24613 13442 975
11619 26680 28
13141 16849 282
20785 28380 510
12295 2093 331
24346 4669 409
29515 19045 352
789 22855 328
29424 20770 146
15090 24693 771
27356 7133 110
4190 11167 328
12609 24080 416
21529 4547 239
26126 16601 420
8110 9256 21
8984 10347 328
20553 20371 667
21442 3598 155
7154 27820 711
19915 4497 150
27169 5920 840
4865 25580 151
2296 21829 871
9645 16267 849
16315 18814 304
23799 9535 39
4350 20578 258
21592 26026 392
18691 17576 572
10064 25715 718
26880 24971 631
28344 24035 175
14382 7947 17
26873 23386 167
20987 13162 297
22249 21996 818
5914 2117 108
24190 12446 437
10212 27147 102
3359 9691 417
25589 6077 612
6472 24485 777
6124 15089 985
23445 13538 708
29583 29868 103
15983 3780 783
20007 8105 245
20985 6626 697
6262 5583 575
23725 1710 851
26265 29019 739
6472 11508 132
20346 23508 406
4430 20794 504
24133 28322 918
23486 8021 454
29175 18033 616
8819 6415 729
12732 9017 525
3246 10862 65
13772 1886 617
2624 19464 436
18699 141 336
20706 13113 770
25847 12141 911
2062 6182 219
19140 21273 87
17224 27829 392
20548 12069 24
7370 3731 661
21332 9294 776
14178 2219 957
29379 4697 135
879 17507 325
19048 24418 287
7887 19420 755
7783 20715 123
29878 4389 289
24325 8872 986
20314 26285 216
28730 1835 528
3259 24387 86
3068 4102 598
23527 15017 277
12436 9294 674
12647 27701 105
22099 1800 788
21223 19234 419
15177 10038 887
23943 26604 729
18703 18477 632
6280 13987 839
8370 18503 253
4952 26419 315
14071 11754 980
23309 21398 816
25860 15015 661
16611 23776 6
1035 3215 296
12405 6013 694
20593 29836 894
19387 21479 777
5993 3454 53
11737 5128 381
8397 6461 756
23893 25080 394
9445 18012 274
9771 13021 698
606 26550 594
22099 24855 705
26322 15495 366
21449 24854 182
4867 21340 133
29756 957 227
22842 4611 607
15373 20298 889
2193 26566 763
13455 9080 931
386 6208 515
1006 19934 377
3088 23989 109
2321 29622 630
17243 21377 836
11448 26752 370
610 905 9
12805 14316 733
511 12908 857
3200 144 312
18607 27562 995
4275 10519 697
8862 29266 612
24386 3150 923
26368 16649 612
16101 28475 986
13499 20298 758
26856 22724 410
3299 20441 203
22824 29386 224
2603 22394 721
7610 24988 940
6761 20802 508
22966 3917 14
25560 19594 623
18653 2570 762
7974 26153 310
23650 6558 12
25592 11792 287
16918 23538 993
29253 12692 114
20469 24492 404
24547 17138 177
18419 14670 903
28715 27728 512
372 4404 551
17643 29176 898
8857 10932 572
22929 16445 340
28975 6076 513
4953 28774 921
651 11389 131
1633 9789 257
2650 19906 826
16152 14346 690
13505 15508 768
19579 1103 540
5767 11175 470
28530 12390 299
25736 7014 940
11507 10005 285
5160 7776 352
1434 25720 606
11023 2800 903
5178 20066 785
26803 29318 418
11760 5584 655
18719 14740 765
20522 4317 756
29294 13571 704
28201 9277 430
3835 9248 709
8921 2372 701
20023 14398 934
15264 6915 814
20097 1257 446
25693 28194 178
17931 17039 214
19409 5215 79
14179 28824 378
22122 3419 862
9918 8619 695
5105 18231 242
25924 28340 784
6275 15516 32
13734 20108 226
22211 22678 692
14024 12115 708
7219 9761 198
1226 21014 95
26897 7191 508
25878 14009 738
8151 8970 353
18312 27875 216
26774 14462 943
6274 18976 35
28039 397 274
25203 3495 796
27401 6667 940
7346 19715 943
28128 23211 246
17157 28948 471
22919 7445 332
11202 14643 876
5078 15495 358
11576 18981 143
22160 16013 516
13276 21960 861
21123 5787 498
24678 23997 938
1411 23503 846
4742 383 983
29318 20928 887
21490 14411 303
3848 12840 709
4434 17408 960
23274 28138 751
27241 10049 562
25609 10486 744
3517 10677 712
11739 15121 264
13571 17309 708
9603 14126 32
16956 3295 213
9364 1391 535
3788 14307 250
5187 5453 717
14072 24496 577
23237 29700 750
27413 17899 12
20523 8122 310
2572 10874 151
6152 15493 332
11718 28569 777
8205 176 488
8749 27064 127
6768 26089 380
12233 12041 801
20419 24855 26
7279 6679 413
16008 25024 873
7626 27625 643
4260 17516 934
17490 448 137
7565 9355 424
15433 13342 809
9215 4994 633
28117 22713 218
20242 21355 390
29511 5773 864
25072 27702 15
12037 27309 844
8917 18695 884
25940 11308 836
5197 28193 177
21709 18984 484
20325 14144 808
7748 13227 556
2194 12986 648
20888 5745 489
29411 28856 150
22161 27872 146
3218 21716 23
25575 3212 654
13217 29593 414
25737 24796 686
2682 22201 900
20909 29069 885
27620 20370 992
14403 23255 499
3180 10414 671
29590 1207 470
21435 9947 318
17137 8906 545
12811 4904 350
5382 6446 80
13816 2658 872
23182 15849 365
26875 2989 912
29988 23529 527
25621 14127 238
19182 10357 230
2459 24038 872
7039 8625 351
22265 6634 361
6094 27533 529
29551 21450 829
9979 9821 8
7869 7068 923
8412 4756 536
17823 26915 728
8416 28094 290
22531 29311 873
4043 6172 494
18438 7695 149
9003 5920 123
22076 21385 669
9016 22779 326
14919 19411 606
16909 25545 63
4574 5594 345
6993 13976 436
22528 18899 668
11192 6449 111
2564 28408 89
20802 9496 228
22472 12820 535
16627 24282 845
21247 7077 96
16690 1867 107
8471 3536 328
9819 5464 263
13072 24919 358
24557 27276 355
10166 27838 421
24645 5171 578
28739 28441 928
28925 14037 978
29976 2066 765
14624 13081 648
8181 8156 712
13600 127 420
12637 27172 917
16147 28671 61
18215 27478 247
26280 21791 264
12908 5806 650
25172 6818 639
21144 1667 584
8527 23572 961
25924 6066 311
7573 8415 364
14949 4845 519
11765 316 334
25194 8705 353
13121 6736 521
20265 28423 290
25768 13857 108
19013 29398 969
434 13615 256
12474 26766 119
12728 23166 155
14494 23140 18
3296 12744 441
8801 216 894
8176 29495 766
26127 23023 805
5200 198 356
25870 9354 512
6695 28458 127
2893 29556 649
21538 16422 445
11950 7879 16
10454 1271 42
27441 8608 910
18339 29531 65
738 5497 224
17807 20717 184
21154 25575 604
19638 22888 921
13969 3514 424
11280 13091 615
142 269 295
29873 22934 285
18460 29611 755
29600 10915 360
15920 15693 182
29006 9648 59
16675 23322 570
2698 29019 898
28763 19665 100
18963 5891 856
15050 17995 893
20548 1487 77
25885 9285 238
108 4395 717
21093 6833 534
21335 6922 289
21368 9257 367
13838 18811 542
11988 14312 969
29914 17092 368
10541 17387 193
12332 7589 543
19025 19452 522
20024 18156 297
23724 13464 676
17065 24294 431
14009 14252 525
4584 18635 662
6110 13787 444
378 11987 562
19202 5889 67
7357 26933 217
13099 26772 501
7088 12919 810
24704 7651 988
5586 22496 362
6953 11762 194
649 16175 726
9952 17412 888
12214 13242 212
25730 8884 880
27227 18045 517
7113 23803 66
22431 22912 353
1787 11409 596
5265 14879 924
22644 24091 279
27478 17503 419
4422 159 724
8255 16133 783
25340 8653 547
8487 26424 309
14021 3160 300
23223 25762 797
23861 23902 230
18787 25608 217
13340 24857 383
1625 11330 7
479 993 493
515 24542 91
10709 14972 721
1200 8794 330
13735 21678 403
19905 16892 757
11553 8203 147
22664 10719 946
10629 25542 618
14544 13136 708
12902 15822 87
25024 224 625
3597 15525 748
3084 7106 195
25198 15010 228
27597 19073 601
18472 10595 215
3563 23921 751
9003 21282 356
9248 4667 766
25925 15027 209
3439 15855 644
26540 20551 460
27081 7580 984
20614 14521 727
10310 12521 774
1308 19456 691
27720 6917 399
29782 25639 148
14020 18011 593
29232 4930 7
22727 20984 664
3482 28614 633
5846 15217 773
10696 7489 877
24212 12319 400
14577 15328 632
12146 3932 292
8545 13224 487
26623 12817 30
22108 23744 901
13875 16541 678
25472 27703 907
27513 27181 341
24998 12530 199
22133 13486 360
5270 5707 337
21732 17008 25
25358 21369 307
29892 9843 720
15887 19804 365
21 13974 587
1478 23532 874
12629 27498 124
5130 28934 894
23340 11273 840
10488 665 148
7362 18068 267
25244 5308 742
21498 27541 719
26875 25567 133
29535 23091 891
20627 29681 420
29878 10202 66
25396 20267 447
29160 3352 301
23673 10126 702
17997 19374 52
21478 24926 496
12130 18225 15
25546 11135 442
7035 4905 349
3840 22656 94
19127 23541 536
28879 28541 823
23682 15286 794
22282 6530 136
13875 27470 281
29950 10644 135
16983 1907 432
24806 5912 310
28997 12613 618
28803 25439 360
25369 12430 905
23371 27786 980
14012 23135 779
5612 12158 620
4111 1973 536
22972 4646 611
2199 8861 44
22399 25093 181
15287 19693 530
27650 13280 816
24807 23096 334
29812 23077 837
16214 5971 903
3815 4666 297
22959 9790 644
13409 16126 341
14949 26242 279
6325 19575 589
22751 9386 876
16682 14001 204
3776 23613 752
7742 18628 612
16200 25086 995
4478 2621 123
28198 5213 79
7188 21707 695
761 5239 672
22533 24460 518
2441 20940 20
15246 15389 49
13280 11957 863
1155 17786 429
644 23976 883
760 8907 238
22000 15309 897
27104 12011 196
9571 28890 584
29830 22249 379
17677 20587 809
9395 9560 320
19835 6101 251
21184 19331 142
945 7232 283
22718 15322 139
14972 25580 884
29362 15476 775
25101 13234 288
5777 16609 594
17059 18966 177
15140 27487 279
1229 12999 501
6177 20988 5
8066 29613 878
4137 26588 495
5233 18474 981
17944 12721 678
1619 26581 932
9089 25618 629
21085 25250 235
4282 25139 422
13611 26587 13
9307 2228 579
13914 29673 245
22048 481 548
19151 46 87
15858 9749 905
5938 28838 134
25047 29618 687
23235 24587 447
15180 25980 108
9456 13547 947
11956 28103 895
24843 17467 168
24426 15023 134
9965 10755 392
18920 6569 246
5463 18259 980
6279 27547 863
1552 13892 939
10297 14640 845
28317 28905 249
7674 19216 708
19481 1347 41
2271 22383 740
7483 3912 88
7949 7312 552
25699 17896 639
2998 27843 786
28096 6675 498
14653 10587 465
17223 27743 116
20865 24946 214
2944 15085 660
3815 12617 116
19691 24849 310
15843 17554 509
24460 12824 189
19838 12877 547
8760 28115 674
4246 18240 661
13145 15486 686
8969 2037 686
5335 13076 592
788 7915 457
23747 21054 513
719 25400 592
19007 6496 454
25160 27991 46
22416 27133 180
22794 7921 11
12719 26182 443
2351 11568 597
3277 18833 872
11906 13649 870
13541 22820 247
16220 26469 347
7614 24814 301
13948 9969 214
23182 6421 562
11368 586 325
7180 11562 793
12078 18972 507
16381 31 218
20612 17375 72
7743 7787 697
22595 14835 805
7974 10366 49
18730 27880 527
3175 26115 575
20818 25677 582
26227 10996 837
29528 12371 654
10066 17724 580
197 18327 858
19987 20107 330
29302 9857 983
28802 25497 623
14638 1998 860
13826 27053 325
25245 20116 163
6202 9108 39
3554 2406 826
26538 21863 938
12492 20673 476
18519 5880 134
25713 9740 69
19390 7853 705
16558 9445 728
3015 13817 230
24747 13089 610
10157 5876 324
15198 24056 528
881 29192 8
5547 25072 444
22193 26702 813
15830 4533 834
4747 22048 187
22159 13496 717
4572 21212 437
19116 25630 172
29306 17260 730
24601 20070 898
25115 153 472
17919 19354 938
12046 4559 970
3665 12999 367
15678 4174 959
26132 15442 497
1057 7852 778
6934 28808 131
11422 17636 389
7022 21051 261
10377 25866 827
22225 15807 613
13116 5613 471
10292 26112 992
18080 1724 226
17350 23538 615
17608 5933 598
20894 28788 828
17720 11874 307
8932 18013 26
9210 22012 951
12746 14808 51
12739 1953 208
6400 28701 435
26161 7404 773
28153 12777 917
6416 20098 683
8277 1742 852
3802 2524 132
3461 17702 362
14112 24680 553
27380 19588 766
24820 18992 329
2420 5724 56
27082 6018 951
24942 24724 581
8584 18893 961
5532 9045 447
17290 4688 129
6340 14132 604
16313 21264 471
2870 10191 435
28023 23723 376
25974 22281 299
12179 13205 306
12379 17418 10
22011 24380 748
17993 12269 902
14156 10861 942
1440 6163 255
3006 18487 291
15822 15645 216
12083 15774 913
1227 7453 598
3577 4169 169
12761 8372 488
24436 15027 265
13520 17358 168
15790 13575 528
86 8067 907
9739 20771 773
24529 17799 905
3526 17609 577
25550 11946 234
3206 23568 457
1308 14817 289
15817 10708 644
18699 23356 869
6828 18198 566
6620 17136 632
11234 4824 469
4124 28321 327
29904 9192 921
27999 19016 54
14654 19806 544
9140 11354 580
10200 9375 459
5016 5906 746
14455 23098 941
9584 18926 633
1628 17899 585
14573 3616 424
17217 10599 663
25687 19714 91
8436 29021 900
10095 18493 528
28281 11379 466
1402 17134 155
6382 26933 595
22445 24424 941
21473 14093 555
6126 11671 504
19367 14610 448
3790 26861 195
15686 19550 285
23602 11977 126
11217 25896 737
7102 4795 885
17233 8616 425
22399 8213 686
808 6633 456
5 3300 438
16850 12371 765
28325 26066 125
11245 628 157
14850 22320 222
2038 29192 672
13943 21205 777
21484 29249 626
1262 14381 71
22761 27197 685
22737 25960 57
24840 23452 207
10586 12184 721
25298 27727 230
7094 15273 492
4128 12224 351
9212 27122 322
21944 9122 155
23757 29507 69
23803 29645 826
13792 11247 858
28732 7315 156
4992 15930 430
14441 28058 693
17891 18516 279
6904 14603 491
14256 12715 115
10715 26654 647
4790 24508 364
17141 16324 229
9320 7967 256
10370 28230 990
10697 10885 439
28021 9055 90
28470 8551 365
14737 1032 961
2561 20620 547
20676 4379 434
8781 2281 136
24597 27970 183
13354 4594 907
7538 17954 803
7982 17316 732
16701 4954 320
6678 22751 32
29767 27695 521
5268 12630 954
6850 23128 82
18295 15826 45
27299 27889 397
12157 27697 101
4505 25410 463
23154 28865 512
27713 14922 746
98 20473 162
4420 568 796
5066 29616 556
13430 5733 955
17038 15235 647
28346 3723 269
24483 28871 981
29106 13250 480
20159 13271 659
28603 16327 48
14862 22796 724
3922 24744 227
15717 9572 263
15590 12710 487
3817 11366 372
12713 2312 222
28277 1502 604
19551 24741 258
9225 28909 132
13493 2674 224
23209 11537 765
27789 14479 804
519 19274 446
29923 3069 392
10536 13712 405
11200 21315 964
3759 22594 183
6859 22839 528
5382 17737 740
7315 24950 232
7359 14567 463
27797 15030 997
12562 19059 342
4158 27084 725
16499 27667 779
4733 21634 310
14024 15849 253
5559 8583 978
13074 27073 194
23175 10849 932
24367 12290 208
6215 13170 653
19889 7636 109
7954 25116 297
19300 3186 812
212 7659 646
29607 9707 11
7286 22233 756
6403 1403 282
3905 409 195
1608 7892 675
8541 9104 283
29704 5960 337
26247 23191 67
25781 26570 859
24641 1017 418
10604 8666 6
17782 10225 783
27113 11949 40
22756 13669 523
17467 27020 16
9970 17111 302
28999 1213 79
12660 10622 606
22179 28405 73
24446 3037 896
4759 29285 588
4845 1336 596
10370 16307 466
22349 10449 518
26947 8309 265
1853 14327 286
11511 26407 374
5450 25693 351
24121 16097 690
3012 18618 364
27853 28288 547
3680 1831 486
24454 18732 46
241 4978 706
12050 0 508
3448 23394 786
26012 9891 584
8687 7473 725
23900 573 642
19009 13724 422
3613 29559 598
11463 26509 503
14824 26880 539
28946 25367 2
8798 14278 810
17338 25386 231
22464 29751 508
18998 28715 601
29295 7662 392
7481 22332 61
20181 11471 851
3327 26013 478
23868 13520 743
992 25028 492
3133 15865 440
5881 24222 464
577 5422 427
14874 12107 809
5819 15250 326
13758 20934 365
16088 22111 986
1826 2203 363
25228 19861 84
27600 26201 886
1634 26484 798
676 7726 843
4901 27290 241
27316 8696 271
9287 5152 330
10038 10854 702
8752 22197 719
14860 22163 707
7694 29651 33
14269 15125 504
28160 10886 23
6162 26588 373
27806 7590 35
20780 28516 676
21689 8189 333
12337 24269 426
27555 13757 241
22602 4525 337
2910 25408 637
20729 4600 549
6321 22401 587
29379 29300 623
26425 15890 102
11392 9945 226
10279 24783 112
20640 15696 555
809 22967 855
27981 21905 135
4236 17866 334
26176 10447 638
19222 2363 815
8078 2850 560
3203 11158 323
22039 26911 653
27269 22030 369
6430 5314 875
8223 22993 435
29800 29559 469
8180 26013 152
26750 14703 131
23926 14748 498
6698 10818 141
28213 9531 631
18097 2443 792
18984 25417 916
11349 5584 289
8545 753 693
763 6525 903
21032 18733 667
11228 23564 971
19446 25097 550
16794 15702 710
15812 10776 890
7622 6540 180
8206 23021 157
20982 19820 275
958 8161 560
2717 29624 68
2476 20464 753
6093 25050 318
24974 25959 262
22364 25353 943
7139 10279 981
20991 24723 51
7103 10273 948
24466 4741 185
21734 24813 13
26332 14467 500
29774 16435 73
115 21046 994
22835 433 302
6661 97 735
2854 19732 298
14046 246 317
22969 22337 701
3568 23536 140
15934 20002 469
14665 25561 374
4403 10031 795
8982 1166 762
20703 21736 982
3212 27596 986
18548 19683 639
2701 28655 242
22736 12487 466
22403 11264 68
4758 28312 924
27258 8453 219
19218 25686 442
27390 1369 685
11843 3473 204
10733 15314 16
25434 18858 578
29831 23677 131
23805 2669 829
816 7542 735
948 644 667
4845 19349 742
23568 13626 916
18581 15362 36
12499 28787 773
7216 29929 583
9176 9311 144
27867 2213 621
28645 28412 777
25944 1897 33
21157 19650 264
15091 26104 279
13368 600 366
23170 26411 644
22070 29411 231
26704 1844 25
26484 1416 466
25126 15700 735
27991 6313 878
27796 3734 103
10004 29307 788
26644 1019 63
22895 16996 963
4869 19628 962
15104 6330 240
17316 5180 998
9091 13466 321
3543 18710 550
21686 19671 514
2827 20977 773
26535 23073 456
10535 5289 820
13440 14075 814
25072 20092 652
23526 11077 54
1882 27800 353
6496 23276 951
28104 21453 481
22298 12793 894
20775 23211 31
11967 26361 15
27371 19332 8
27174 26577 280
764 13551 754
13418 14541 631
1683 29242 987
19014 19744 834
26797 12633 854
13362 1213 903
26951 13081 290
24912 21251 941
24628 26816 7
16908 15493 216
5232 26446 348
9386 7665 450
19395 24367 472
11828 293 632
2500 12013 158
19240 21914 911
1851 20222 224
27292 29306 886
3817 17329 307
922 3165 965
21985 6814 882
7854 19648 622
10022 28991 269
7952 17923 28
15760 18311 469
28514 25424 375
28169 4096 811
19920 29146 849
5045 12712 964
21385 23382 291
11978 10682 755
12398 9801 406
19976 17793 326
20408 22720 639
6587 4499 626
3078 17958 746
10320 20742 935
16682 16610 812
21257 8925 282
15092 11257 660
8238 27914 112
3358 13578 694
23718 22130 747
11251 28271 802
26357 9839 390
5263 5402 267
25190 7096 806
18715 18031 478
13551 22752 23
27116 26975 933
19490 2632 45
27563 10569 540
14594 24833 794
13185 18512 899
8216 17784 735
24246 25007 901
28442 13636 686
2174 12111 933
26467 22333 866
4460 18691 384
13881 26321 91
2254 3070 927
29561 23448 346
18886 8437 457
9707 24733 969
22419 25757 424
17377 11181 730
17099 4672 194
12730 26273 862
27672 22888 219
1496 13487 64
3726 10890 561
23557 29405 564
11839 24876 517
5675 28105 493
4497 16711 50
24946 15259 346
29042 20969 600
8940 21689 605
1284 4891 151
20035 24798 145
26351 10907 944
23456 18599 244
517 27347 677
24044 6706 26
20400 16762 653
14112 9871 914
6101 12722 897
9612 17434 454
10828 19549 864
7012 22516 49
18513 13519 883
20186 13464 846
12220 15972 441
13303 13289 572
6210 26957 409
14697 29787 876
19344 11414 600
13700 24560 106
11510 931 943
12664 19703 522
6648 7118 882
12318 27952 83
26645 1734 102
7439 5963 418
23024 19404 406
13656 17491 458
25099 11646 3
24806 4051 877
9703 16000 521
16157 11178 780
5919 20771 521
21489 24352 776
10680 23307 863
29214 300 264
3816 9900 185
6350 26514 419
4321 2940 859
27222 25513 767
8115 15669 473
16537 4435 740
21789 28468 297
11434 10496 702
26461 11916 810
6982 7176 564
26266 25205 394
13819 13911 249
29228 3667 471
3610 28698 456
5165 26712 903
289 8660 739
522 17919 539
27975 13131 867
1206 8120 298
21741 25341 508
26777 25184 666
21056 18318 482
2365 20950 897
23613 25797 689
10732 8712 11
4141 9289 816
7976 13742 188
50 10666 274
28243 29825 876
11290 15653 10
16609 10945 986
1218 10367 408
21360 19783 879
10523 23710 574
1252 23076 535
5909 8076 974
17173 10704 172
13334 28534 424
17424 4632 712
6350 22442 41
4230 2548 710
4369 22356 341
5696 231 778
28939 104 523
23873 469 242
13942 7215 796
27297 5349 959
21259 23417 948
14415 2326 141
15216 4853 985
12703 16408 698
966 13745 66
22574 15815 566
15811 18067 11
29951 8720 414
15022 12802 571
23191 6008 508
1162 15815 825
26982 27204 266
28328 12581 360
6280 8395 897
16818 13278 233
25382 37 728
24278 5266 85
1925 16365 191
6822 23263 761
14746 12890 431
13387 22373 238
18179 3161 74
16295 26122 602
2476 26827 245
14738 8760 692
3153 3388 366
9272 18005 177
27652 8041 392
29298 16199 255
17811 20476 18
24531 17092 967
19049 29336 743
8936 22759 998
11975 20641 150
10851 26452 28
29283 28779 588
27793 14123 206
16503 19309 273
23485 28260 711
17675 23913 269
22805 7632 200
7666 2173 702
14802 7966 705
26217 26777 619
9 25661 798
23398 20331 727
25639 26412 972
20604 17476 395
24894 14834 878
21058 648 794
11413 25542 550
6388 11628 268
27680 23700 591
22513 16364 579
10476 28015 890
26975 13611 79
20684 14186 684
18450 16788 947
24761 12573 368
10347 19824 238
8554 20276 104
25585 8985 256
29266 24300 259
7316 13492 350
789 28561 793
14021 17488 813
17548 18679 212
1049 8203 438
16136 17200 471
10038 23505 955
18482 27786 269
7875 19230 821
9704 4854 542
18915 22083 879
1981 6174 17
3707 2568 151
5250 11032 371
22980 6742 438
15734 8705 970
7267 14189 641
8243 27833 12
3815 3257 975
19131 18584 571
25729 5487 501
10420 306 787
17356 19817 624
18903 19618 280
26030 18174 824
25617 28276 923
27445 22431 92
19160 20706 578
22365 1970 818
11037 26626 515
23898 16207 107
475 27590 175
27900 3764 997
21344 15813 876
13297 24635 922
2468 10417 889
19220 7117 458
10953 26123 358
3412 20087 244
25859 17694 821
26988 1306 624
25633 20188 208
162 20611 641
6465 26056 992
25220 8088 734
13247 27598 423
12857 2842 727
21674 25260 725
8228 5077 707
20685 4463 118
13395 11614 798
12695 12766 58
29756 432 628
15832 13743 599
23237 10636 232
158 5534 284
2918 14355 670
4621 28061 721
22041 20115 289
25860 9623 767
25563 6399 373
15903 5195 427
26133 9256 651
24074 4451 899
9501 4605 252
19145 3814 968
14913 29808 813
29298 23396 707
23381 25546 358
21366 9967 691
4585 7118 397
1408 2574 720
14409 10751 812
17432 562 980
24059 3684 596
7613 27961 621
12261 18955 207
6790 16026 251
14766 10534 289
28430 12529 412
15602 15396 25
10494 5263 469
15141 6802 104
387 11345 378
8437 3627 575
5644 26498 598
23978 4996 428
23149 20810 862
1512 29404 466
11778 19910 566
16618 476 874
8029 7220 263
14691 1326 879
7907 2345 798
20756 19365 665
25914 14820 599
29396 14868 803
149 7684 124
17418 15837 367
16483 17 146
23438 23692 354
9178 11619 781
458 18252 365
3396 11297 764
26506 12472 410
9002 6486 747
29229 24342 430
18003 9367 34
18187 12540 220
7194 3110 15
13430 24465 980
16047 11863 423
2121 7848 307
20952 13266 209
28479 2325 116
2056 20729 658
2668 23928 311
20769 23836 142
17688 23677 859
1533 15260 654
15068 17344 644
1937 3154 48
8184 13841 888
19208 24468 459
460 24134 351
21748 13424 916
5634 12455 547
3999 13232 659
9729 3774 993
7946 3932 881
26264 25233 79
23962 3307 287
18405 12370 400
11626 14235 501
10496 14754 797
18554 26156 738
28967 3583 258
14908 29175 340
18487 7348 681
10961 21774 654
8405 10525 83
24001 25625 59
19372 26590 816
19091 4741 366
732 29303 456
27309 27823 193
12695 20668 530
27540 8186 932
21463 25182 540
15072 14628 79
20854 29647 405
19674 25223 820
4651 9624 756
11842 13000 706
20438 12519 754
19631 12919 113
17343 25329 471
24595 2740 23
1325 26594 700
13903 29984 911
4498 20104 984
15208 15326 110
4227 14981 149
13691 17782 576
18199 15909 414
29143 12604 442
15383 17969 35
27788 29908 874
25764 25666 619
9985 23027 232
29500 29625 124
21936 11353 41
18010 16846 916
17330 22404 821
24567 7865 742
19942 27429 65
27062 3484 193
18711 11792 381
23949 18335 891
27167 13742 991
1971 25154 166
20525 25 282
26991 15445 570
27227 29976 665
6665 26116 473
28303 22032 178
26347 6428 440
21177 8608 514
26409 19721 725
4488 17415 684
12695 11210 913
3612 25594 635
22427 14502 590
7718 6600 92
29448 21166 698
10744 28233 222
8816 29572 590
13590 16470 293
26297 1675 281
9201 22218 853
14291 1665 111
124 24516 998
11997 20136 616
6389 28285 51
29175 10070 273
516 27547 232
18970 3060 165
15462 29102 24
18614 20914 894
4308 8934 375
15764 20703 517
15055 24649 531
13582 8521 133
22284 22305 183
22621 25504 91
2828 9824 11
16300 24694 356
16633 21903 281
25955 19059 923
18527 21425 623
25894 8915 802
16273 29518 957
22554 28719 140
11279 14308 95
19627 12724 212
7486 25912 50
27219 27114 549
244 9415 106
4878 1654 86
5836 21021 925
26892 17462 503
24497 6734 337
3462 15991 932
17602 13486 927
4651 27078 324
2216 5195 140
2274 27989 281
7336 29299 242
19829 18470 654
16621 25408 267
248 26053 519
23908 26224 948
12315 25621 347
7597 16891 312
11084 17461 352
19538 7296 933
24143 15081 863
7510 3745 364
1809 26287 550
14406 15384 470
13494 20690 794
2261 3693 390
14112 27833 430
15771 19177 458
18228 23231 564
14862 29044 771
18424 27470 370
11438 16694 546
23906 5141 142
3934 17807 634
18588 10864 334
15732 18573 307
28563 14868 291
22892 20322 440
1857 7194 707
9765 2586 178
27836 7247 960
14350 17392 828
11479 7514 963
19226 15643 828
17044 22455 167
18068 26017 195
3073 22818 916
21379 16547 519
25610 14566 786
11591 17568 158
5290 8403 241
17221 3559 13
26242 24659 942
5167 6019 442
320 24756 85
5628 11628 610
17454 180 421
17038 9992 673
18734 8918 769
10249 8936 523
28752 7843 761
17165 9399 591
16085 19992 7
16280 1591 81
17032 12269 462
25025 6690 48
26777 17128 736
27489 1045 663
23721 6741 167
16817 12751 488
20372 19762 876
29994 3317 784
10134 16763 548
11669 10494 3
7792 22381 384
14342 18537 989
18306 34 435
3535 10766 494
22891 10084 285
20295 4230 374
19831 4503 860
13891 18274 261
21309 23494 950
3134 25310 158
4018 8790 81
27825 29412 415
28033 4711 113
29758 28679 436
1197 14455 949
22411 11157 391
8024 20059 18
1557 26001 583
11029 27698 4
16488 2397 932
15470 22977 349
20411 24649 33
10282 19652 268
17672 25035 723
21740 1330 195
22812 11498 472
17560 4889 883
23074 27871 259
4901 1583 766
18715 20063 721
2897 18299 425
23835 10977 153
25886 23002 880
18396 21748 285
21722 3956 271
6175 25820 301
25560 17716 713
25165 17139 513
329 6795 368
27332 28468 877
1162 26286 368
14359 15385 593
3398 25884 727
11876 13762 433
26069 17823 372
14854 10413 629
13067 12219 137
5149 3814 295
27407 11084 347
22428 9770 254
9945 4073 724
28254 7784 152
8337 7650 42
24570 4144 954
19095 3212 400
10962 22697 330
2957 9254 582
9713 25050 238
17186 23847 813
15128 15609 743
20363 24203 595
14812 20086 68
7230 19292 702
20042 10436 526
24992 10718 219
17524 23318 230
8552 7001 493
29007 655 665
28411 1833 641
6322 29005 505
21287 23151 422
11134 25040 863
24886 26025 654
26655 17707 101
20746 4985 720
17999 22849 98
7721 19496 20
29316 20532 972
17460 27567 753
28935 20691 203
8359 8250 658
23709 4780 249
5007 27495 49
23513 7985 829
4624 29699 855
23726 10282 499
19580 15732 243
26379 26666 375
4544 16118 42
24831 18012 258
22817 4481 31
4170 17504 686
1584 29061 393
26675 7218 850
14372 21120 571
20612 7295 43
21972 20712 440
6966 28032 662
14868 25732 540
3954 16019 152
16337 8544 629
24933 22052 630
18883 9993 447
1985 21940 905
3707 5371 170
10779 8179 491
18534 24944 132
17368 6436 225
7638 28312 802
9660 3965 426
23385 5136 878
24307 12578 834
21077 20985 128
9038 14949 536
9728 23268 804
26085 11990 449
23638 20251 140
3042 8279 501
9409 25952 28
27281 23863 497
876 27754 455
18699 17324 852
2069 5506 304
26822 22482 975
20094 3989 617
25151 15096 194
3357 10192 769
8750 3603 150
23016 14581 89
26217 28955 677
22940 15251 316
20304 28275 244
28211 15365 589
24420 20765 39
4590 15624 410
4844 13118 524
24862 16470 778
25577 13887 827
23867 24070 660
893 7857 846
26779 8049 46
15841 22643 591
19400 17534 671
22687 20091 900
14944 1496 668
9715 16060 338
1999 28493 204
12130 7165 22
7375 22653 137
18421 26165 968
12757 22736 459
26683 23822 96
15903 11934 437
8963 7592 595
23959 27595 329
24072 15377 250
11706 22459 539
14897 11192 173
21969 21129 575
22894 20654 432
10145 11291 676
24728 10650 396
16126 26435 886
19237 813 940
27594 5182 88
3480 18040 293
24002 20786 591
27437 19566 73
9116 24965 615
24751 1073 196
5017 2235 696
26053 14626 441
9604 3477 272
21954 9275 938
21261 28076 68
3447 23955 785
9265 28194 392
21387 29822 904
26585 13948 161
4976 12561 2
12487 7994 437
8518 24132 11
15092 29064 856
3515 1674 708
24805 3349 107
17781 2335 856
24759 18114 193
13568 5381 599
26851 28386 87
19605 8338 962
27507 24234 886
10894 3330 2
22745 25923 218
18129 25694 962
29438 29739 776
24574 29423 615
20410 24785 280
10048 4960 823
27221 2097 815
12634 24976 734
278 5393 17
1893 27236 246
4430 27849 94
29559 16623 706
17674 16008 48
17105 28363 651
11332 17435 317
19190 12025 169
27891 24360 450
21453 2618 273
11832 24987 284
9088 28792 527
1868 22856 521
29270 11206 150
24317 16 84
7525 28992 469
6088 8559 554
17794 8462 491
23632 20610 448
3839 7136 326
17415 16321 540
25794 27077 914
23017 7475 300
18762 14655 339
9311 28290 235
8147 21891 312
29106 25136 909
10116 28396 703
8123 24356 435
25591 18833 6
9763 2396 985
7635 777 61
12830 11150 592
8252 18509 347
24868 28417 104
15512 11385 785
21360 23018 365
25578 1784 484
16174 15818 979
12300 16088 564
21173 2265 732
13653 591 278
8058 27945 340
29252 319 948
9423 16890 990
5839 28003 314
7908 13130 550
25895 27257 43
22071 29744 371
2139 345 915
16582 14243 575
20162 9483 183
22197 21887 300
19666 25570 21
26187 9225 803
29007 21681 522
16688 25478 446
19885 6294 102
286 21615 130
10266 27623 779
16140 25748 714
16418 2340 553
18472 7366 13
8042 18087 669
7823 9192 684
10452 19852 656
26757 28229 669
3850 12709 574
27865 7102 32
10410 10504 666
23917 797 157
11592 22017 82
7916 15806 324
16294 25902 702
10609 1576 25
26517 4980 137
18296 21032 794
21738 5275 71
19553 22436 207
3273 23420 230
7171 22630 652
2150 29583 568
11763 4496 980
19925 29938 674
29091 6664 885
6235 4349 682
24651 21915 922
7634 15831 929
3514 24047 613
10579 5284 83
29995 1325 753
16454 3703 403
5949 11744 629
12058 7660 657
8042 22199 660
10662 29376 5
12273 10390 140
15018 22903 896
20337 9865 893
14842 9571 881
12061 7365 513
6612 21889 768
13030 24226 36
7384 15425 667
3108 27321 122
12836 20432 426
20702 1684 732
16591 26178 342
24967 9745 237
27878 12690 396
15093 15349 622
10106 29646 663
12516 10978 461
19276 24627 380
8045 1846 1
3252 5279 215
20344 28625 168
12681 6236 937
8198 5890 194
25142 15064 71
29056 11779 462
24162 26304 960
10909 29804 17
4487 16441 583
23818 26341 44
16734 862 846
15047 13137 229
27285 10118 583
26630 5261 241
23190 18444 505
8191 6652 345
8362 23845 266
290 21548 856
23156 16219 532
16852 22967 574
17884 22695 328
7019 23103 224
7068 18950 50
14464 15150 11
14704 25233 331
5413 28650 513
27960 20901 674
8739 28142 67
9619 28464 268
22286 20727 904
28697 530 604
11404 817 902
29644 24736 438
1686 27020 140
12577 22144 700
1031 12153 2
15797 24874 987
14091 14504 458
2309 19815 532
2170 10997 787
22149 19854 79
13527 24916 710
14119 23238 287
950 14878 568
16966 20731 818
12114 14972 843
28532 25764 715
15433 13848 752
1856 28633 201
6612 5493 765
28029 15534 342
19871 24175 277
20882 10635 439
27364 6640 461
19725 8628 501
18096 19871 113
22801 28911 320
22971 6450 932
17588 27896 161
15958 21939 966
29907 1266 110
8631 9509 515
3022 25119 450
24609 4786 106
12797 10720 728
23898 10075 451
18847 753 824
25744 20277 274
1668 6609 855
22064 1088 105
3009 13973 784
28332 15235 158
18945 642 795
28283 23821 268
7018 22317 860
18745 13965 838
8998 7831 118
20664 27917 234
24993 23915 551
20326 14815 3
3298 3832 679
29586 28633 527
26715 24025 991
20198 29409 497
18336 5377 209
8651 29938 936
1891 16799 428
17403 11069 979
26201 21984 205
28131 25655 927
8376 12275 519
19321 11224 752
23667 27192 550
19037 28132 336
17951 9631 222
12102 21278 269
1435 29917 379
22234 17555 795
23321 18280 808
932 6800 251
23940 3089 682
26568 8707 571
14609 3523 332
29957 13700 154
25609 22485 155
6709 16335 174
14112 5245 551
25935 27780 741
7803 21320 331
10578 10947 974
26644 19770 525
13722 7632 448
15769 10841 602
22539 20023 320
14380 28487 911
1174 7027 128
27033 23803 911
17881 23762 722
25461 16926 38
21598 28825 179
18207 27469 402
21931 6353 282
3753 29566 823
7825 2134 632
16825 7436 314
811 20891 213
22230 2067 712
29578 9671 671
11107 9241 440
17638 6402 294
22140 29523 18
2157 16482 947
17195 6831 4
813 17472 831
17637 24506 207
7689 16752 959
29014 2977 31
24739 14093 772
24564 17132 981
17105 17100 832
21679 6383 65
11032 28975 358
2019 16554 476
22536 5371 369
25048 10008 859
15269 18304 670
11653 18819 941
23144 14412 76
3255 28067 183
11713 10702 395
3119 10719 796
21788 12376 512
11701 11948 471
20093 29343 901
28561 26432 783
17377 22414 198
26221 6536 964
1040 14562 891
28201 26348 967
28601 23186 289
26857 28091 640
6702 6518 186
7783 14383 998
28340 11793 229
8878 5049 29
5888 4579 830
28751 7241 305
18151 19962 454
18791 26144 207
27674 13561 62
1654 17263 185
11484 9264 900
12358 12316 528
24488 1195 187
4391 29702 965
29882 28620 206
29640 6293 555
2861 2902 226
4182 23600 794
24784 7297 861
18470 9218 963
22309 12600 267
24648 13317 957
12871 25549 170
22038 15116 492
17372 22333 808
7136 19382 520
17703 20978 515
4741 17972 586
4832 27058 921
25761 24342 595
4637 18258 794
18232 14489 922
17557 16002 759
12173 28286 165
15063 23890 734
27781 28473 725
343 27893 480
5937 12434 476
13530 22426 910
2123 12247 524
17151 24765 92
17826 5913 137
10276 13739 587
4647 13119 528
22483 16579 693
2469 20952 343
3767 7475 557
2776 18445 241
11384 20573 524
22008 17002 125
28958 26108 777
26817 15695 554
15291 29069 153
5882 457 266
17925 9488 578
17850 24715 226
4345 8980 914
18760 25257 25
12578 27906 494
26042 2538 710
13631 7764 825
11759 3270 461
8684 16673 554
27399 10506 213
8121 6537 263
27987 28011 111
21119 22869 648
10107 10203 197
13485 16883 733
12651 14509 125
25180 8489 831
28296 2841 428
26134 646 333
5370 15974 381
21044 21456 76
1245 24621 473
15386 23037 452
23141 22228 987
4744 12504 24
28113 3591 684
18194 4193 451
29532 23552 695
8349 26521 898
25473 6361 91
15149 29304 838
10802 23364 26
15445 18212 15
18870 11091 879
9375 2871 949
29904 20774 467
9032 13558 127
1515 18644 855
3726 12531 625
8794 13729 453
28277 15232 794
7889 2961 123
24912 26353 225
5788 23180 299
4288 22228 2
16561 26226 611
23584 23040 509
3760 6448 455
11277 3593 882
26037 12317 657
22900 13509 842
8711 5618 174
2490 10167 95
16193 20007 67
28531 17681 936
12844 1561 64
25481 3559 63
16583 12845 102
22855 27925 480
27879 21817 671
24799 14990 680
19389 13873 776
12679 12299 379
17099 9621 30
12978 12336 529
10433 24317 413
27241 14371 63
6811 23698 653
13124 4498 878
22374 12347 677
1505 22857 314
8545 17657 482
10838 19656 736
1463 11392 243
12509 6485 364
26841 26013 369
19327 15916 68
29836 17772 968
23378 20712 464
16828 25506 383
5457 3154 654
2713 12246 857
8706 18249 563
14149 16579 644
27352 18039 685
16748 14359 615
28912 9012 656
26420 13324 231
11237 10710 592
8535 3971 694
7259 22456 508
2980 15019 166
5983 12447 49
25646 5702 408
24070 14180 566
18086 24460 398
23443 10630 257
577 12502 698
9317 15714 992
7944 23655 32
21468 3865 364
10400 19809 895
16646 16512 156
17858 14645 717
54 25411 535
406 13184 612
6634 19346 985
24598 4006 835
23268 25400 503
989 28695 869
10004 22360 757
22308 10952 392
26416 29690 899
19395 21041 662
21054 2099 792
157 7255 558
26959 5274 965
233 13273 787
17979 19093 630
21922 994 936
13012 1871 229
17418 23600 108
20139 24704 13
11719 26193 860
17501 11018 783
11683 25552 155
1647 27971 391
29600 17168 201
12195 16569 566
6909 11541 128
14574 21286 594
9896 10082 227
21227 800 673
15787 18578 831
15815 18429 151
3579 24815 885
25576 25528 964
13601 4129 488
8220 28053 744
18445 18356 383
9009 25832 202
24234 19336 512
17195 17915 285
3459 16799 752
14906 26015 66
29881 22367 918
19021 29595 712
25943 13133 861
15224 2237 63
14086 23002 553
28130 14359 72
26034 8794 650
6416 19357 213
13959 27353 207
2097 21615 595
26980 16161 912
25017 6940 201
19516 29764 945
20764 10090 656
24487 2220 840
23766 2320 520
11977 23885 6
14776 17550 844
16791 10442 735
3156 12938 507
17767 4243 404
5633 21796 498
13852 13873 971
1304 18708 33
5743 11030 342
13066 23786 416
27606 6933 573
11972 20731 141
8401 15012 627
12497 5132 680
29789 11035 687
2761 2478 298
5449 14418 923
16607 24359 93
10588 7742 368
10014 16405 956
24344 26897 479
16233 12545 239
22302 27663 869
25738 17874 785
9656 1577 73
23113 12809 744
14979 11407 819
19587 16628 936
16403 12869 378
22985 28161 359
23837 13281 738
21948 6313 576
1060 27214 851
27448 25929 837
29988 19148 692
12839 10156 348
6672 10901 62
24665 2305 975
9917 26132 982
26687 13024 909
17325 29132 862
28244 644 203
19134 10719 374
21037 3163 609
22612 4610 844
11080 6662 78
19858 21550 518
25356 6313 667
19231 5035 956
16857 23270 589
19515 28710 304
20331 1318 395
11695 26115 735
23172 2282 587
29207 28228 115
21373 10864 576
4000 561 465
10955 2498 298
6160 24931 252
17203 15755 162
11585 26823 814
14402 1319 5
5572 27151 40
3473 23410 117
3850 13207 169
2781 28648 558
27450 12083 177
14187 12935 219
13268 4115 157
19916 5091 252
3161 6360 183
5154 19254 689
11339 20967 648
4287 6721 583
27375 9538 161
26914 25974 669
24551 7719 93
21534 17430 351
1530 8416 821
22559 23090 870
25985 15671 441
15291 13348 745
26142 153 68
16382 8958 676
15528 11105 551
20238 8095 75
6759 29687 929
6863 2456 378
26340 26181 128
20427 12853 451
23501 59 524
4510 23617 370
13420 20259 517
4026 17603 835
5956 24799 986
6406 1490 991
29640 29853 911
18836 222 807
23243 27772 607
8895 12930 224
20594 28517 106
16493 1991 578
28067 14635 630
26513 10247 396
23052 253 820
18026 17215 229
7676 15742 952
19769 13945 233
15564 12176 900
17918 19254 874
11392 26643 659
1837 4517 602
25825 6858 857
29197 27547 921
1696 25958 397
15946 19878 944
9474 16247 993
29821 4008 169
22168 22128 114
5854 11192 447
26497 1235 788
4284 6751 281
15947 11465 122
22075 4614 589
1277 4909 279
23820 15676 822
2118 9885 767
24435 6023 206
23798 22896 477
26526 19436 808
24839 18844 341
20972 28467 12
16540 17664 619
7212 5604 633
18901 14313 402
1065 24323 750
14304 20600 715
14592 23428 629
7703 10935 400
10385 26641 222
24141 20838 627
21358 324 992
25581 29539 657
16467 7952 719
27027 26415 830
6116 10555 133
25679 27289 739
23672 25389 886
10849 19477 492
355 8123 67
28268 5331 260
24491 10834 200
1436 964 854
28956 10512 989
28899 20297 639
18483 11708 933
16752 21604 261
1978 4139 985
943 14679 671
14247 4022 931
15406 786 19
6374 17238 600
14185 12807 612
27010 6892 774
27228 15746 545
11792 18334 136
30 9013 604
14313 24849 399
20319 26123 811
24670 27846 159
15338 23146 571
5063 27313 403
14969 23313 697
25909 6463 321
18853 15943 462
23502 19603 237
10354 13375 967
18472 17519 516
12951 13189 645
4875 13160 198
10508 12991 544
16834 28205 474
23036 13766 751
21031 22174 516
4090 1796 182
23630 7045 358
13793 5030 610
1068 1879 521
18022 11625 221
19692 1537 2
27887 26057 171
11696 7820 797
6929 11665 601
26468 23830 881
15829 25991 595
3897 8944 783
11373 338 565
15470 24293 9
15034 13611 363
27647 22907 152
27313 6557 109
19696 8870 315
11143 5299 937
1712 26597 552
20225 16825 670
28983 102 677
23513 2044 211
15229 21986 101
29135 21698 324
18051 25496 791
20755 9128 843
1640 12371 425
17317 16479 477
15434 15963 62
11109 20392 692
3621 21092 899
20352 4115 381
14782 14857 830
6642 24173 676
4462 9806 89
28822 2777 448
24858 29335 131
29756 11850 371
11025 17643 597
28003 12264 271
28196 22599 697
22840 20026 803
24072 25965 85
9922 639 653
13670 14750 674
2809 8989 296
16404 28266 744
19113 256 289
17272 18371 944
16165 2245 609
15005 14977 293
2620 25220 402
25201 25198 916
7990 27427 368
26470 24468 718
21881 28310 942
8885 3988 566
2185 10136 703
22848 29357 654
28201 27596 451
16104 16407 6
16616 6096 515
27927 11 86
19843 6806 505
13552 27045 963
7726 21107 653
18671 23623 150
2616 13734 367
3556 27296 290
3930 24743 790
20132 8290 50
29414 20172 293
29785 20787 449
15034 13912 691
26368 22925 810
18553 24859 154
22931 14868 828
7994 8016 114
19432 1199 375
1604 10241 784
15380 4674 551
1803 23739 572
26375 19752 795
27979 27122 349
21484 6900 629
13635 24779 116
9756 3132 889
24471 25547 307
11035 659 337
11441 12245 462
6640 17988 53
2449 19291 994
25856 28930 220
18528 27432 371
18379 25878 204
28850 24753 291
5815 23521 134
20339 1995 996
29168 29796 223
8387 19609 232
20995 12015 672
22306 27307 813
27658 2151 340
22827 16596 379
4857 9962 193
3629 4057 357
18156 26413 862
29569 3067 13
13079 3994 367
23554 27607 482
12866 5802 638
16368 1328 936
24484 2329 456
22563 3144 522
13598 20269 769
22941 6642 31
13760 7013 842
20104 9689 431
26047 28880 876
12112 25117 124
27029 15127 416
2590 15859 75
5734 22050 798
3173 21015 930
22726 7167 886
5974 7948 509
19283 8444 309
28397 20055 460
4052 15640 143
22626 25107 802
20313 27866 980
17112 19735 365
28410 6820 508
1395 8907 775
24248 18290 275
13966 5024 458
19570 4768 568
13357 29862 998
15275 24580 991
28995 1592 237
3770 22536 458
18461 27461 624
3804 25913 820
22284 23271 75
2075 6105 635
17246 17775 490
5876 25978 472
1667 9328 872
26800 25781 153
26116 11447 82
20330 29432 105
27889 12846 777
7240 12859 539
14143 27528 828
24661 9719 146
361 1030 451
18954 1519 389
10879 25375 360
29309 18280 690
21592 21742 714
19775 29852 142
17272 5246 110
256 23525 798
16684 27224 453
25099 7528 696
20600 9050 341
25245 3395 128
11015 10201 672
6023 1061 336
24277 2996 296
15043 4923 959
15369 18062 897
9417 8570 239
26943 22115 787
4315 10064 137
4646 16650 744
29985 24092 648
16016 27407 916
1116 7718 239
17662 930 520
13385 1049 595
15704 25986 861
12804 26990 160
27645 22486 403
4646 1599 257
14228 14560 185
3214 1474 896
20660 20838 813
18566 29743 385
27210 9554 453
12064 12820 26
24324 19713 439
23492 12371 866
27952 6197 529
20669 6256 436
21078 6022 479
14391 16761 938
27766 19747 895
18015 16500 98
15237 17858 382
11374 3978 143
2238 29840 499
23808 186 373
25199 28424 435
10617 27704 116
20881 18847 475
17798 17830 502
26078 17054 934
7209 24012 942
22799 13888 186
9860 20109 950
19978 29306 831
9691 23205 240
25233 3212 47
20935 9502 87
1967 6437 352
2671 23247 779
25137 4385 251
28425 10564 928
20424 22785 872
26269 29664 498
27254 28530 571
16770 26404 389
261 14560 466
16465 7775 709
29895 1777 147
19161 979 662
17751 20196 29
26182 10370 371
21339 22295 916
21869 25488 313
2224 22512 629
10153 6504 222
2753 7642 566
29195 21037 82
9318 245 122
19855 22635 698
19380 15079 218
16442 3367 218
1812 24189 855
15236 24706 87
5440 12114 785
17430 8827 797
7936 24824 654
5019 11817 591
18361 2271 945
6112 16461 864
4382 17995 122
21158 6284 665
3158 13517 538
4745 11114 899
11274 3932 549
15408 3634 623
24507 29063 987
11325 14263 852
3876 16089 147
6339 21997 413
24667 11872 155
27363 7396 324
10186 7541 54
28158 17860 171
26155 12914 836
10002 16596 830
7566 22207 203
3890 23549 461
29583 566 562
20827 20254 317
8563 25576 830
7596 9141 401
29909 10951 101
11599 26603 821
18401 14135 162
18547 8977 769
19147 13598 843
18320 1232 749
15161 12241 203
16485 29022 193
801 6808 955
4288 12491 627
18267 3919 263
29482 2890 827
19271 21370 197
11897 19218 776
23989 24038 898
28332 12667 857
16971 22477 301
23413 10692 646
9470 23369 209
11292 26362 843
16162 29657 385
12208 8389 47
3310 9731 570
21181 27646 482
14964 5735 649
11309 4177 864
1866 19111 346
24899 6536 100
19723 17019 727
17625 24544 318
22272 15042 727
17596 22138 305
2537 21787 935
12005 18949 471
2526 6524 263
25709 11077 29
18369 17277 200
18873 6265 621
12401 11512 64
3946 25445 327
5031 2866 892
4174 2585 438
14692 22773 705
7380 3713 832
6107 14961 21
12629 24194 608
7413 2253 736
28581 29423 337
4652 10879 832
8553 21377 395
25828 28005 438
28861 22208 983
13080 2986 846
25956 26829 534
1382 16001 889
24100 16962 952
16799 6781 600
3362 20661 863
23239 25280 977
11071 16235 962
10328 28505 940
26666 9237 870
26140 19812 581
14709 18782 529
6122 16119 86
26919 3385 793
10591 29343 478
8165 28592 26
25694 16896 264
11216 13173 5
2270 23352 115
24326 18353 7
14696 12064 204
24177 18675 827
10683 28043 895
25668 538 834
10273 19752 745
8728 9105 449
23143 16248 784
20841 13449 932
14780 10646 229
4522 5683 187
15610 4221 993
18881 19306 168
16568 6882 186
16052 11826 802
23258 21943 459
13979 22785 964
25525 1561 732
24424 26202 132
2932 1103 767
17190 1816 296
15776 20970 953
23022 8036 371
2522 13124 528
8109 12710 931
23915 26622 946
22707 20561 570
22491 472 111
9239 25548 42
17758 21956 154
27305 12827 806
20635 26552 302
20591 1711 217
18908 17318 756
9090 3586 714
15607 900 192
8295 26721 103
20472 60 442
9367 19458 205
22078 5040 825
14258 24110 949
15803 8818 91
1744 1285 271
2617 23919 786
29822 22526 624
13871 22566 460
26781 1813 642
18982 21125 328
14482 23803 639
11543 16779 107
8082 1405 974
10538 2573 70
22124 13605 935
25410 15737 231
8316 23400 696
20855 22984 1000
15636 29472 869
14167 2274 396
9549 24917 51
11321 13790 450
10414 19406 475
23511 1112 94
22388 25929 471
22615 1913 239
28767 5427 215
13205 24537 276
17643 17901 945
2104 5095 478
25211 13660 800
28669 16169 127
743 18987 555
22411 16288 706
9819 8371 499
15948 5617 883
11011 740 126
5210 2688 713
26558 20261 693
9043 11376 829
5684 28825 158
2089 23755 304
19961 25569 369
11913 29571 277
28034 10898 317
16013 6110 989
436 15251 829
19656 2414 806
15957 22048 330
2170 19128 797
26527 5709 904
2199 24541 644
22167 2633 107
12605 13763 927
5819 5846 846
18211 9747 253
5787 21628 528
2941 28189 536
13699 19143 759
25214 28359 979
5961 22286 834
22635 9230 544
28530 28922 669
15786 121 689
14596 22484 492
26369 13304 877
14793 9558 429
21788 10514 20
21172 8440 321
3799 22068 583
14808 442 536
19004 14930 396
16395 3491 534
28375 20303 635
24045 2880 746
22993 22268 123
16464 2381 321
22236 2684 540
16487 18243 50
10329 24627 421
27096 14738 539
18738 993 15
27902 9462 636
23442 4809 849
29344 16954 610
1032 13282 262
50 8172 27
23985 25926 135
14297 13645 282
26937 28791 704
3640 2820 579
5306 7828 570
12797 21008 852
17795 10088 166
10280 20530 110
4938 19170 656
9707 25900 87
23942 17196 153
4269 29801 556
8032 1841 943
8321 7625 191
29366 22444 186
14454 20966 505
17059 4582 906
1286 27566 963
23458 22918 794
10919 14683 634
16515 19843 245
9931 18729 539
3030 684 723
11093 29734 24
4771 28035 461
28109 24909 666
22953 8736 118
18847 20649 864
19826 22297 267
6077 15479 56
10049 27784 87
3051 3727 778
2988 23783 955
28571 5697 115
8152 28102 551
160 4696 137
21438 27032 848
3963 1909 400
19558 22555 800
28863 20414 106
8970 28181 267
12228 2931 652
878 7823 878
8886 24548 432
23660 10440 187
12611 27676 464
24578 17645 763
5359 25061 535
29441 24460 511
5306 16369 252
13686 28086 923
22487 28003 864
6801 9574 570
18663 26845 218
24102 10846 754
1846 17234 829
14700 23316 413
5755 29878 831
11962 19664 171
4011 2672 662
16171 19395 644
8329 17080 638
13764 11390 18
3699 26270 210
21810 26688 802
28946 17355 958
23420 26132 716
13005 18331 402
8881 5900 334
11043 4076 572
732 10900 422
23929 23067 530
23589 17726 562
16891 24165 652
26640 5008 531
2500 320 881
27161 492 473
28318 12947 28
25800 6498 306
1220 11339 148
25169 4219 466
4154 9715 217
25888 11460 231
1830 24343 542
864 8070 746
20899 2709 999
23694 5101 65
15797 22502 130
5926 17147 710
17716 53 467
26306 8780 764
21583 27052 604
21481 26822 745
6138 29169 475
24263 29310 352
18655 22222 325
9516 23288 635
22768 28949 280
23637 2015 977
20451 20881 845
28380 16963 571
23921 4390 91
19565 26035 152
12899 11583 606
1073 3008 831
24745 7859 254
286 25305 890
387 26204 695
15171 9018 849
2786 25921 236
22305 26462 720
19445 6971 518
12820 6535 739
16043 12866 987
2429 25175 223
27622 22739 738
14367 15773 215
19046 27939 521
24536 19924 768
6025 21637 479
16087 29662 656
23500 1399 317
18830 28717 627
1855 271 699
27255 19539 133
15769 22231 615
3131 25879 135
24224 23949 937
22240 13248 359
5205 13011 867
6294 27288 637
3998 18194 908
28889 5228 665
18464 26560 442
2856 2027 630
19885 12843 446
5461 3001 927
16399 811 10
1982 927 98
25080 10017 169
14069 24095 618
25340 16163 831
6581 20193 891
27950 20644 710
23559 11854 635
16667 21431 1
18765 29448 305
5555 1740 29
25129 27894 974
1769 11279 816
23493 26562 728
25123 23488 12
28475 27656 498
1518 1757 669
21693 14758 318
21950 9507 531
16307 9390 86
26986 15196 571
27036 23639 97
20997 887 287
27047 1571 750
22168 8475 814
20907 24701 136
11557 11234 533
7287 22938 973
15440 25517 971
25575 465 409
29004 16527 746
8297 864 653
12227 5267 712
7554 3974 131
18047 8409 105
28228 29822 877
25358 14317 557
4725 24380 157
8753 5393 836
23661 23289 634
18542 6795 243
23843 24300 647
19861 4327 494
13325 23212 746
1314 9823 308
25443 4806 487
6819 5112 753
12945 16416 53
22413 7336 660
20265 28467 463
28530 8336 579
16321 8615 980
25863 27138 710
15382 24625 948
13827 1137 967
22814 16886 991
24367 15895 530
28346 28353 443
5381 28626 401
8485 17541 345
20929 21264 253
26621 9963 23
28122 16874 626
1092 8728 447
13657 4798 769
6909 20942 262
15680 771 269
7023 2323 209
26245 3193 247
16808 15134 836
25383 21430 200
20251 15498 392
19895 28487 546
15806 29928 88
185 653 415
25104 2910 41
3782 26379 422
9705 5690 806
27494 10645 613
23758 20879 616
20928 27669 897
2380 2797 285
1299 13214 669
16576 12624 912
11071 17706 168
18926 8633 850
3912 5346 921
27585 9063 906
9698 21039 197
13444 16473 660
18205 8446 464
29566 3750 957
11234 7975 488
23312 21995 993
17865 29300 253
1955 23685 389
3326 15289 596
28858 15058 665
23252 6631 166
6606 8592 991
3329 10236 732
4809 16358 698
22942 16255 154
18403 14887 667
18948 19714 213
3112 11423 459
28251 10281 110
2312 6142 395
25282 6313 973
15877 14557 662
13377 14767 858
14167 23462 588
9041 24207 140
24898 25648 71
12157 11791 287
29514 21111 538
12714 29748 938
829 22576 178
2000 27484 980
21786 20754 728
14850 28332 314
15422 8502 956
21865 5511 874
4676 5897 472
10292 29531 109
23458 24775 752
18862 14949 452
24959 14931 968
7492 9324 922
23937 435 45
20007 27426 339
25203 19327 622
5771 13149 236
29100 7793 958
27667 17928 473
17634 16103 398
25907 15033 700
854 14547 266
18901 19374 100
23326 29767 137
13109 4391 937
22860 2358 245
7963 19075 334
28164 27181 8
3584 14082 854
11232 10214 247
4345 8847 962
8317 28308 1
19769 21392 475
27890 2475 987
19653 21870 561
16513 20686 329
28534 11159 222
21899 16384 99
27003 22020 54
22938 26634 115
27532 22804 939
15923 6607 714
4668 15903 167
25225 18618 312
24289 21795 321
8723 7930 474
4005 23915 766
7907 1459 295
17668 19792 680
9917 8492 48
12673 22192 286
7822 25418 159
19502 2400 936
23058 29904 772
11651 4063 945
9884 24219 851
3165 13823 523
27587 12665 965
3665 28576 313
15686 13285 93
3883 1170 885
24856 23523 532
19388 26352 422
5359 26809 238
28634 132 931
14177 7983 623
24340 19552 736
15504 14392 988
22399 10700 507
12095 18667 922
23676 21575 398
2885 22785 829
20787 12243 266
19201 11626 281
14146 15792 462
14100 28014 188
439 27726 611
22227 25220 89
10272 20183 461
8324 17474 690
22516 2549 910
9519 620 151
26664 29090 305
10394 7197 398
24035 22873 464
16226 29773 145
8042 13237 405
19614 7332 144
22364 3751 330
25266 29385 908
9792 27325 653
24106 2583 466
16842 21936 860
5927 453 246
9498 13318 667
28420 25192 976
22130 17364 851
6141 8995 37
9388 7912 161
208 13514 626
24039 499 600
12044 3996 855
28922 12465 800
17616 21633 119
9774 6696 771
9819 23233 532
27813 8024 216
3052 1432 309
7626 1166 456
2353 19094 624
872 18960 409
11418 8271 278
27830 14270 705
13736 3585 597
26937 28169 666
28466 18369 276
25011 7947 68
26893 12389 849
1217 377 512
21458 4800 649
15303 4209 654
10956 20176 916
8999 20090 561
12380 20189 856
11740 7324 712
6089 10324 773
22710 18264 433
20976 25226 432
1918 17127 705
25709 16636 469
23835 27463 380
29300 21484 802
13287 29741 709
25864 16310 164
9315 13630 429
18149 29641 745
4689 13416 597
14827 21552 994
7527 29503 503
1425 13492 722
14005 8865 294
29884 16247 649
29987 20366 330
5522 20344 556
3592 2684 766
3885 12813 465
27426 24772 321
10238 27350 289
23328 13183 916
7084 20302 948
14510 19041 265
12054 15510 253
16529 28711 952
29431 23208 508
2022 13490 900
23229 28034 167
24483 24683 387
10468 12367 97
18717 15582 959
29163 14500 382
29502 9642 200
8076 4187 607
14570 18132 56
13670 1631 21
26208 18902 891
16737 12019 711
21112 21244 885
13298 7698 26
4262 20242 48
5835 24498 717
29844 13832 209
29340 6105 652
6933 19931 415
13155 15883 562
3567 17614 448
26393 27711 43
25350 3900 727
25062 19662 283
7916 1413 109
24466 6104 108
187 13138 649
27925 21829 570
22180 26139 401
16066 1708 173
10748 26841 375
21636 21859 419
19509 19011 119
11913 25566 710
26920 28030 980
28744 22226 802
4622 11718 454
509 26556 321
12409 1961 661
7413 11700 587
25726 8627 207
16997 10567 355
23408 1795 209
22142 7703 194
1429 22250 39
13962 10042 3
471 1711 357
2878 10554 892
14522 28311 111
17727 8997 498
13199 183 883
7293 17292 365
25452 20559 258
7127 17530 284
23867 5630 147
4899 5823 563
2924 6907 991
3946 2649 46
13873 19105 290
25974 2785 211
18126 3692 696
5135 2706 576
29071 7381 771
13875 23180 603
656 22618 322
24068 21903 438
9213 22660 292
4744 3950 304
29711 19267 630
12767 19261 73
18859 6613 882
16817 17803 225
4964 20438 735
20975 3754 355
28271 4828 575
5057 20457 603
2806 17891 37
21317 5685 43
731 27155 450
28510 13953 463
20227 19650 105
14686 18510 765
4683 29492 536
2264 27599 889
24156 18089 690
11277 4609 846
1588 25077 51
12290 29977 498
19308 28440 47
1455 21479 590
13486 16546 104
29073 12265 199
12483 15298 126
23688 4036 959
5553 29830 612
7454 20086 995
5873 17503 429
22285 2699 174
13350 7973 969
11761 2693 851
29163 24432 935
17943 8866 719
14827 6043 814
20158 10500 625
9849 21102 129
23442 19149 910
16018 13369 141
29649 18959 68
20781 7218 221
14119 11692 235
9517 1176 418
5094 23762 822
9521 23442 439
13589 15596 365
11664 23144 832
7057 6203 797
25865 20467 942
9509 6617 554
1070 26407 317
2606 11883 494
29009 28846 709
23009 9306 333
14639 27067 201
10124 29241 159
7746 22634 403
19933 12269 306
28909 2435 603
25443 26988 443
17064 13517 15
16356 22668 687
29250 17163 741
23683 5867 988
5493 11601 88
21300 23578 595
27560 28219 105
25790 26308 36
29635 8024 533
5752 7811 619
3685 1376 676
25420 5187 780
28248 5397 672
10314 24396 458
3778 14121 810
13900 7550 345
24239 3305 480
6826 7503 385
248 13164 466
26044 19281 51
730 2790 719
21211 17753 23
10350 5552 827
2693 7856 944
6062 22113 529
998 3667 43
22108 4163 471
28694 28270 81
24436 15756 278
6466 6678 160
2750 5551 375
12256 18948 547
859 3245 778
10475 18624 848
16576 25149 112
18035 20652 929
27579 16439 243
11945 14677 828
7372 9372 564
29622 14981 688
4870 17469 906
16641 17488 651
1278 22959 492
18373 29289 763
22904 10497 510
20176 11294 153
6282 3841 804
10351 14581 320
6003 13781 717
21649 15258 785
359 14473 519
22934 26474 282
4679 17761 693
13748 6972 894
21889 25066 621
13108 3758 688
29298 3073 946
26379 28270 895
14594 24773 114
26616 17198 559
18366 3641 936
26390 29486 322
28022 27409 721
23589 232 355
767 24459 996
13041 19210 474
26735 22769 128
15472 9138 884
28253 6236 358
21697 6097 571
8369 24385 694
24001 5907 30
10760 17515 402
9814 6908 885
10007 14933 675
548 4948 409
18459 4622 823
15802 12494 479
29521 20776 39
16781 18310 19
16452 1514 526
26167 2815 935
4124 13393 542
3328 13951 650
23834 71 807
3849 10514 63
24451 7402 897
11912 22705 15
17565 770 754
29853 6124 170
16598 4411 640
1683 27195 247
2668 25445 602
10528 11592 79
23934 9676 592
8766 22167 363
577 18475 70
14564 2855 484
21373 21621 151
6 24542 963
15909 28854 826
18896 10263 999
3569 21929 160
18803 9672 727
20204 26591 451
12802 14562 842
29657 8232 163
18139 19995 406
26268 3427 666
12842 22062 157
248 6578 619
25833 208 466
19479 26342 99
11625 3360 840
24162 29361 935
20792 3986 147
14949 29328 975
11343 3755 985
8199 22481 785
3299 6951 659
22865 18906 863
10409 586 859
13225 27778 875
6232 23583 635
22287 5056 465
11747 3555 48
24300 4319 172
13139 9348 284
29944 19664 824
19482 7948 975
21337 6878 621
28992 15666 344
19289 9889 847
16855 11532 777
19680 18214 88
10715 18256 121
25965 15815 446
10356 7678 681
19185 28209 131
9187 3806 42
11647 11881 368
23053 4660 163
23069 12941 737
28505 10014 829
25752 4171 820
15133 20244 687
20104 13706 410
291 18124 365
26414 13893 843
23739 15676 837
17507 27856 645
28142 13071 646
14051 26984 538
11337 13040 290
21922 8650 187
8346 24019 809
527 4483 224
23215 13854 100
14329 20535 37
16678 13325 580
3183 2348 129
22185 3460 683
24072 26570 752
15676 1301 33
22585 10292 821
24366 26542 665
14052 4170 1000
21545 24096 542
24785 29914 291
23193 2952 435
22875 20224 139
4008 4545 205
25263 7670 994
18212 7738 496
3411 14354 352
11640 4762 29
18699 16698 121
14233 25301 994
8523 12633 224
214 24003 728
7102 10248 564
9894 23613 354
2073 28012 691
16687 22329 606
6374 16824 930
7215 8586 737
7049 25717 486
18451 18232 459
29626 4019 542
9788 11755 364
21718 26108 692
24975 15480 860
15576 11540 515
6237 5055 983
4414 9370 74
28461 1597 104
29848 19471 115
25673 45 606
23615 27409 880
18182 12590 532
29136 10268 617
5253 17159 312
15371 20001 756
18426 15247 79
27109 3977 574
12547 28913 181
6366 16683 817
18344 5478 432
15746 13474 321
4006 15632 761
24577 1594 408
21588 3852 29
5234 27431 562
11712 257 65
11161 50 141
14187 2844 461
13150 707 545
26248 28537 342
9496 28123 766
2271 19101 799
6543 12639 122
21566 14771 759
17220 11241 104
5121 1847 485
8380 3031 860
21832 7415 196
24324 25886 427
23614 29838 532
21547 21365 906
26527 27787 641
665 27384 102
15412 25934 853
2776 7744 338
13244 27941 927
5792 621 93
18122 27573 985
9227 11229 948
16221 12883 33
27875 11032 410
480 13349 623
6889 28904 629
23817 28600 93
24609 10511 611
12399 11134 586
13335 1782 461
12973 12452 218
29809 5567 67
14945 1576 42
5609 27936 773
660 2300 425
2440 362 794
24761 20990 183
16417 26842 101
1242 12528 231
12108 6399 401
17095 2105 261
1936 9901 165
11772 8073 209
23935 26709 193
20775 28000 52
18123 25538 570
5207 13281 297
14111 23815 276
3868 24532 944
14964 4453 20
21542 21814 769
24234 1841 343
24773 1775 305
28542 19355 854
11272 29019 357
22833 21906 109
1635 6480 635
28010 14186 605
26046 28739 966
18238 16806 951
3150 21641 856
10657 29969 620
739 2768 851
28772 25124 539
24566 21616 932
29753 7935 359
28852 20305 411
26248 8909 419
29909 6583 562
16239 12377 423
802 250 209
26265 1527 104
21372 8355 214
20830 18246 550
1359 18764 391
23894 25128 70
26927 1145 538
16490 642 219
6406 23459 895
29690 25714 865
7533 27464 461
13818 29726 352
23830 4530 501
13825 27787 8
25276 11851 488
14143 12512 370
7299 13475 16
16843 3172 282
6523 19123 483
7378 29679 161
19123 28433 67
19436 23458 702
17965 6885 360
16180 13273 673
14330 22579 567
21111 19590 23
19266 25085 165
29571 17198 399
8150 21860 900
23592 25460 264
24911 10545 416
3641 24010 696
1114 93 223
5538 29096 732
12802 29616 350
11480 16251 255
20536 7483 446
10241 24460 65
20428 2104 157
28147 146 237
26434 18333 778
28051 20045 102
24107 17132 579
569 14762 374
3734 25697 660
8576 2847 370
4275 5663 119
10679 28365 473
25814 13205 131
13936 9459 527
29961 11879 630
1646 14458 864
20564 28083 189
11608 28204 608
6675 14416 448
3157 23657 754
17856 16187 452
4222 6100 910
22770 27865 684
23446 28080 645
12086 10732 667
1089 5444 801
11112 22274 361
25943 604 104
18452 22588 753
15423 23033 429
24748 22785 823
13804 18763 871
20065 16009 253
21190 18358 731
16198 22496 445
29140 21301 976
272 7325 779
26181 23798 306
17809 6342 852
22877 472 246
21541 15437 189
2145 5024 21
3239 28583 76
8792 19897 715
1869 19300 846
29344 28871 606
14355 25902 758
22911 3827 100
26669 634 531
4294 9114 259
15254 27925 306
16545 28542 200
22133 15615 619
27049 14363 289
15681 27418 489
21330 8451 433
6486 13173 824
16319 27068 511
1489 21590 77
16654 11816 262
15842 3286 70
10682 6980 36
26648 28515 72
21785 14749 880
25873 23720 100
23982 2407 931
19622 9233 770
13706 73 291
27067 13646 521
27729 23402 797
23146 29155 583
10487 15503 15
27943 24592 209
27332 15534 631
2293 28096 73
22806 29131 80
19905 8912 328
25206 27111 670
21249 11231 226
13207 21893 675
15124 83 934
10432 7754 793
4545 26992 716
16078 21753 851
19541 7726 203
17462 17026 407
1757 966 188
5785 10518 218
5675 29882 197
22259 19912 952
19247 23612 844
23454 22099 291
904 11134 7
15581 19218 856
27507 27455 449
10303 29690 880
27468 16412 148
13122 27055 305
16342 4519 332
24333 10312 7
26469 25222 189
21635 26811 55
13404 17049 60
25831 11482 315
12860 27911 176
19543 3040 650
29377 16540 188
27618 6158 824
18256 25291 2
22949 21855 104
21178 5776 913
25190 16494 214
21467 21855 181
21174 7221 658
17556 28409 64
768 28462 818
21544 27562 133
29741 13801 976
21676 18671 677
8131 26878 113
22270 10729 943
29559 18821 998
21326 25241 238
16360 18859 815
28295 13191 884
27879 29831 817
2135 23928 521
10053 25374 288
21180 20323 501
7726 14516 341
7446 17912 396
16176 11469 756
17672 4941 455
7190 16670 721
18835 20902 484
16445 4802 664
26408 12470 257
29547 27492 838
13889 24695 567
22504 26724 938
2834 12829 851
27529 18086 451
22528 24891 845
19228 7522 229
29550 23413 625
26897 13446 76
6695 24250 796
13414 7929 414
28194 3974 360
28326 15185 332
5045 26760 300
26865 28902 278
14990 23989 937
9406 22897 65
10022 20514 740
22461 10570 962
9711 1696 276
15413 22266 311
6337 18639 610
16013 1059 479
14250 23170 830
23781 15872 304
23426 26699 360
29811 27275 66
28263 24279 14
5874 16692 130
7160 24953 805
16158 25336 935
23398 1757 724
25097 15302 265
68 28506 953
19304 20878 151
8311 5163 115
14350 8997 415
5018 19612 333
15163 25246 888
13160 8363 98
27363 12281 121
13326 24144 426
18608 21224 224
19373 14355 557
7811 2855 812
25251 11678 314
24079 17377 297
19552 3018 385
4442 6636 344
29528 23187 588
17831 27740 60
9701 25957 855
26898 19931 891
16016 13383 179
11674 21868 343
29569 28839 56
27970 20645 769
3800 18494 153
16255 25470 41
7046 7262 587
13025 574 315
25039 4675 656
12773 18245 887
12620 6611 27
28528 23040 317
3837 14790 386
8807 19341 696
12020 6965 292
27691 504 933
8324 5199 65
26057 25575 638
15943 18955 767
18382 16719 872
2124 26486 601
2316 12094 566
15806 8536 260
5269 2902 375
28139 23694 725
16549 9331 874
2476 6370 207
12484 26537 643
17916 11756 927
20129 9091 244
814 5726 478
17595 22542 804
20056 29674 212
6845 24493 726
12616 24425 666
25504 18308 392
9328 28165 839
29581 18887 216
21123 229 917
1949 24249 698
14642 14125 653
3715 21613 402
10150 9959 251
22437 4473 153
14563 27014 809
29527 1029 770
15864 26027 668
14778 23712 563
16031 20076 17
22353 8121 120
844 21899 512
17076 17048 26
16400 11120 265
15387 10751 264
25688 26428 188
12593 140 445
11952 26044 526
6484 15891 760
27326 29019 428
13201 1015 778
26798 21280 198
26251 23398 315
7745 16182 329
13134 28184 227
26145 21640 373
22822 15649 525
24718 884 93
22242 11497 70
2584 14485 11
11334 7949 936
26078 25321 773
10293 13071 401
22288 1701 861
29342 15611 942
5434 6597 895
17005 19876 246
26814 27872 696
20375 5549 616
4839 10470 323
7940 23838 564
5534 12515 310
21004 11534 326
28094 8068 783
26225 5646 750
29604 27118 730
18879 10012 344
5498 1067 389
22354 22061 71
1685 22226 854
14876 11850 669
14531 29963 712
29980 2685 878
12942 7895 671
12623 10961 113
25690 5086 615
29390 26144 495
19257 16883 775
3808 28657 524
18924 6105 641
8531 18827 314
12883 13512 931
7487 22834 209
24726 21531 482
14448 20021 240
23642 22240 558
1610 22389 861
16833 5469 557
6196 21068 915
15984 11163 886
22194 9542 905
20749 7126 58
11302 7547 653
26459 1371 582
7958 27009 832
23364 25602 737
25848 23071 364
28917 29632 604
21811 9033 101
4975 10297 936
24814 23163 68
26856 24942 363
20133 15448 127
1166 20142 666
2576 20456 382
22568 19242 988
3164 6352 214
10873 17047 33
2527 12347 176
16344 21268 48
18572 13189 163
10204 5255 21
113 11270 180
14012 25538 857
14816 4846 851
21461 3607 325
12898 29394 189
12623 27407 242
11281 16335 397
26755 24611 549
26523 14834 720
13746 3841 283
26498 3312 116
17400 2464 1
14340 9542 408
10707 13246 386
6899 143 102
147 19272 409
15735 11020 892
2144 6672 631
16096 2197 334
10484 29902 389
1215 29411 109
27585 3331 159
5410 2598 15
21646 8249 771
29682 28238 42
20342 5928 851
26586 19456 698
20708 28918 606
6239 1160 694
3966 16203 737
27072 28254 698
17997 29018 122
9399 8627 501
26572 5524 947
17714 4523 646
14672 24282 910
28849 16182 922
255 9104 855
8852 29181 606
15892 25291 56
20951 14659 69
28169 9177 392
24832 1634 394
27626 17533 767
22710 13814 172
1294 28192 258
10120 17153 256
17035 10085 237
15193 3221 511
758 14601 851
29421 10761 812
13144 24498 99
29635 27831 560
17458 17596 24
23611 3236 869
1589 14625 146
7751 24401 155
27020 15010 798
22423 29202 845
20811 13316 79
10257 4303 706
16681 28947 835
4223 17244 504
4391 2754 167
27802 28533 956
17909 6620 659
19885 18563 345
25242 16904 868
2487 28659 271
1757 20016 791
13910 27687 202
10344 27501 134
1006 25526 683
12876 28661 547
26222 17003 691
1244 8840 533
28757 24567 913
15881 1036 719
26895 3026 461
21469 7136 69
14527 19612 100
29847 10939 136
2102 3099 575
11861 1806 443
11298 3685 255
21179 26219 728
22479 20440 808
11913 17804 320
14611 4233 328
7568 16379 732
8340 12186 974
14869 21867 988
10950 10286 27
22962 20004 84
14107 16036 383
21689 22156 92
13566 21062 233
21662 20321 48
1140 13314 974
18557 24491 551
18885 11091 762
17014 19126 960
18536 27002 16
29653 20351 782
27431 15167 521
13709 27511 917
5413 12194 927
1037 22512 194
25572 8907 528
25887 25828 199
22320 14822 542
14607 26127 858
1963 15121 692
26539 25136 495
19578 18281 94
9341 16240 589
12345 26221 417
897 9064 254
23837 26555 609
28443 1308 460
8404 1319 945
15334 11167 316
4772 3324 374
20585 25666 660
28839 18156 169
3616 29108 909
1555 8633 181
18236 11461 939
28978 16370 101
23385 3685 770
28547 9662 59
8081 10185 640
14799 29211 85
28042 9909 420
14455 12996 231
8253 21759 104
7435 6529 928
5281 328 270
21105 14466 757
21156 26014 207
9025 14029 376
6314 27967 116
11676 8626 443
23109 1328 268
27084 13788 557
9273 24158 230
27391 2382 419
20290 20848 192
1543 1011 199
18346 21658 801
25554 29214 401
835 15439 911
9429 12590 238
22428 18106 656
8355 18488 69
15964 16933 912
10049 3951 805
27021 22863 719
11418 5392 403
8391 21075 922
3159 27469 871
26683 14438 545
25865 14410 329
9161 25958 839
8750 17082 623
1923 21479 978
2350 22781 152
10819 3507 382
12126 24371 254
28663 488 439
20888 19530 343
12905 1267 51
17920 21502 209
13881 29122 868
16308 4468 692
7013 8362 66
27668 8095 49
23155 6356 710
10799 29672 28
22511 17019 468
948 28203 984
23215 13473 251
10580 15838 126
8699 19664 657
28953 113 984
22779 21274 847
8234 17241 587
15186 24742 119
13442 3873 534
7664 20678 137
15118 12910 136
4820 11194 897
25109 21456 703
310 28783 460
27547 11755 15
9253 20915 571
15816 18255 457
9111 29979 122
21444 3912 435
21933 24141 301
12738 4578 933
8786 12966 622
19144 23246 579
23627 16606 231
24002 14765 244
3882 11227 537
425 24322 8
254 1097 429
15807 14947 832
371 7326 208
6214 13701 906
29359 25826 122
19175 24428 12
28624 16109 235
5077 22587 688
11489 1700 785
6328 18731 734
10598 6015 657
2426 27805 959
21504 13248 145
6727 11003 420
25820 23271 698
10883 11792 894
22466 7952 361
22848 25619 229
976 1504 133
1642 17542 391
14024 29200 589
28332 15923 58
16827 25568 92
23109 14306 391
25470 4852 424
19118 18952 173
22557 29087 317
10790 7350 866
21007 18651 739
20946 13466 88
24535 25051 650
22074 20331 625
22912 899 172
12197 11751 576
7509 1186 522
12097 28504 773
1264 8437 650
26252 15919 988
8737 28703 297
9347 23586 273
18204 23071 96
2380 28374 353
2599 2806 846
5048 14621 187
26018 23214 184
6236 20802 152
10566 26439 460
21434 19668 3
17011 7327 218
29662 25420 466
1503 10917 316
23704 19930 159
28045 29321 901
16109 20818 362
16715 12092 40
11969 26211 150
14792 25371 717
27668 15990 260
19505 6570 386
14944 29044 804
23805 29809 894
28180 14555 581
29059 17631 254
26517 25536 733
27448 24228 288
4730 25600 571
12748 8282 286
15890 3066 389
10775 17942 571
26063 17711 78
1130 2085 501
6335 8397 487
26469 21815 725
27795 23948 552
26818 21466 846
8561 21134 541
4642 15777 378
15374 1475 649
12984 27956 158
2151 18513 680
13977 16149 779
6239 28825 437
20054 21114 823
14458 24219 296
9333 19742 538
18115 20688 698
19436 26211 870
3337 14683 262
15736 28688 556
4874 29293 28
6708 17667 759
12258 7167 800
20401 6150 504
4375 25935 187
26910 248 543
20641 19571 573
2407 9015 408
29028 5121 881
14372 25141 35
26015 9098 178
24969 14258 430
19932 14880 76
29580 19351 823
2495 12353 292
15120 7857 521
5911 29713 819
20528 22940 617
23745 15364 726
2771 3034 431
15676 5122 223
6375 18051 744
15726 27702 261
28963 10256 228
18271 11133 247
8932 17099 71
24009 7223 514
21464 2960 20
28213 11532 624
8076 23312 934
26105 22426 96
29509 2988 190
1724 29975 852
6327 16340 963
27263 28241 696
17856 25310 171
492 13483 67
10342 9018 228
4257 25307 809
15834 5271 37
14328 9685 112
13260 20977 64
8846 2916 371
5613 29087 794
25127 2934 470
12454 17976 223
6974 15142 998
3000 27312 203
17890 8852 650
17748 7144 488
27702 17790 254
29851 22442 840
3572 25977 650
23822 27591 618
23005 3018 666
28975 16256 159
21638 9893 774
23929 16738 308
27233 9552 261
20545 21318 733
23949 4223 558
28065 26137 32
19601 2646 676
26293 10038 811
15469 17625 189
3525 18698 357
24269 6630 370
12899 10559 980
36 12568 845
1858 925 165
28523 8757 689
11174 19032 855
6882 12378 954
10978 29071 39
25929 27715 169
19234 26771 488
5583 22126 443
26334 19485 110
16921 1223 806
7487 21206 596
6099 27361 694
14073 3079 849
20049 18673 605
20696 20665 357
1645 27266 867
12165 541 931
17712 12844 6
7078 21788 570
5834 16005 749
15443 16077 614
2354 15781 721
1076 25486 474
5009 25503 916
17641 5998 948
2945 17122 378
3417 13142 714
6208 25553 38
9980 27721 135
25810 12288 671
13781 7797 582
4807 21853 535
16182 19156 498
7648 8566 580
28013 4909 181
21789 21362 870
18968 6060 223
2969 9611 508
1340 5923 896
20752 15183 107
6750 20573 106
1721 13841 35
7254 17278 3
28194 23774 302
21673 10005 461
5676 24489 762
1758 17055 989
29069 26134 969
13147 9609 750
29900 27400 907
26016 11649 869
10966 17605 905
28770 10717 902
13652 9682 117
12737 6103 373
837 17671 273
20908 16895 147
16496 12206 930
18103 18331 604
3936 26687 175
20253 12618 856
9799 991 415
7520 23019 647
13273 26326 851
25054 19157 515
29458 28437 739
17365 28744 207
5601 18112 405
28115 21012 944
17150 4451 60
29672 24300 121
16903 19044 734
9225 5937 820
27793 3055 591
9321 10982 65
5991 16772 978
5622 22945 381
6285 14770 910
16227 4980 536
3427 17343 517
18717 18442 120
22443 18506 719
29966 24794 337
26418 10612 60
21104 15760 914
4021 2452 106
24926 21176 350
9743 22227 365
10117 25721 75
13281 13336 947
28920 26369 360
21970 10677 993
23088 15510 840
755 4130 225
8537 19672 335
6593 19684 664
24392 6931 256
3393 29147 6
15791 2195 839
16812 6276 414
5288 3727 362
19200 29950 537
340 29036 595
19408 9853 525
19193 13704 773
29161 14046 264
27694 16121 598
19948 16341 931
13898 29909 263
20804 18045 273
20606 27456 824
7164 23673 998
12642 5622 306
28909 27579 75
6785 28235 893
24319 22794 573
19410 27334 764
26996 12856 848
25350 11214 581
9107 10218 624
5555 18235 398
7161 25120 398
19702 17064 735
18706 23004 891
28544 13401 79
29940 18975 391
29896 21764 135
27381 1894 542
24849 7846 209
24375 21169 341
26210 25299 82
19263 14978 761
5273 14770 5
23596 29682 314
8199 22767 239
27373 19105 911
10568 26119 3
29605 17799 735
6316 12675 57
6797 1915 520
13442 20496 365
11566 11467 43
20388 10611 698
3674 25979 60
5173 2045 20
23387 18895 263
12092 25382 170
23409 21214 884
20713 10715 90
10892 20375 543
24257 24225 961
5764 6297 643
478 12967 226
2638 18973 139
23507 23808 889
7929 16165 581
11048 18049 93
14415 21113 7
186 14106 487
22441 21632 750
17363 802 311
15487 21954 128
20380 19385 587
9616 18819 158
3020 14133 929
20291 2682 344
19425 7504 765
2637 4896 180
25811 25875 464
23475 27970 500
9679 20961 307
26021 24098 577
24396 10799 773
1306 29047 148
23151 26766 265
20573 28651 47
4784 27728 190
23989 20370 690
25452 17803 368
393 19901 210
17002 14546 438
22617 20523 823
11292 6685 250
29677 18028 477
11562 29483 121
21215 23334 378
20587 25560 621
24134 25814 319
14685 27655 2
22198 18892 138
17616 14429 694
7938 6028 711
1981 17268 248
6622 350 31
17466 11733 408
25749 14105 862
13232 6091 94
17443 3600 244
29430 25055 140
20345 16284 85
5257 21003 322
20240 373 479
12752 4220 83
14573 22590 551
18906 2126 641
10168 12030 555
25317 415 419
21550 25966 696
24714 7293 729
11343 23612 118
13433 13222 398
15493 3317 309
1585 5596 646
14572 21356 591
24631 21582 929
22647 16583 342
6246 22279 625
14358 23282 443
26347 12352 139
8534 21206 210
14373 16724 294
8397 17722 816
3218 4742 245
27317 24913 10
23084 15778 853
15662 9413 905
13812 20236 777
245 18020 672
9091 11891 524
16445 16746 667
11260 21542 125
13899 28739 73
4533 3325 499
16070 29745 943
28967 6653 66
29455 2274 897
19424 936 256
18998 25197 666
23551 27158 80
28334 27913 742
13796 5916 459
23349 3745 193
29844 25337 277
18079 22333 560
17134 29419 620
13901 14393 489
8731 29521 502
1098 11344 383
27200 28221 500
23600 14074 781
27504 13590 292
22420 12853 365
27867 7501 986
4821 21762 345
24424 12891 955
16707 24483 461
26135 13207 479
23228 13305 191
4348 29860 31
14983 26525 701
13089 27652 771
8581 550 776
15458 21696 504
2563 13122 520
22127 19498 826
7071 20702 982
27997 13861 271
23321 23670 151
8415 20843 665
9890 24763 383
11279 23408 425
6674 25815 777
16014 15782 958
341 3612 148
18863 9619 428
15829 24733 576
29761 20115 167
17320 6383 659
6376 8423 264
2413 5071 670
2574 18342 953
24271 14545 426
3871 11657 568
23949 17472 208
27713 17451 996
27632 13072 765
18039 6576 129
28680 164 506
19842 1626 924
17461 18771 681
15739 9081 450
10677 15729 139
22307 25719 60
25583 29855 930
17362 27521 316
18409 16091 427
8339 19131 886
8508 12052 874
28668 11065 195
14649 23171 930
28212 1585 54
19401 26949 651
2380 22169 190
21829 29605 626
18713 8913 480
8532 23955 871
23311 29261 220
20176 26942 287
16981 8568 855
20369 25290 446
25555 25516 536
24773 20171 974
16270 2621 639
7118 15218 600
22349 6597 398
11615 23876 12
5063 21842 5
12894 2092 851
21420 28545 398
11015 24604 49
23415 393 438
1516 28752 823
28544 23895 185
6514 22076 420
11349 1961 909
23639 21683 992
19457 25448 625
1285 9387 793
23296 5971 177
27031 891 484
14564 26699 134
13876 27432 89
17451 16736 974
14032 16565 846
11295 14258 830
17139 20775 272
17289 26236 35
26543 9533 834
8742 27538 357
1065 24244 236
16260 5819 388
1056 5937 769
16020 24180 125
6093 28794 452
4149 18486 432
27000 19796 576
15955 25430 551
13900 14159 56
29804 5441 598
7903 26908 884
25442 800 115
13026 15700 152
769 19697 716
1169 16838 648
22753 21116 261
27786 14692 360
22302 27008 672
23561 22983 331
25728 16178 288
21757 18942 242
4847 11055 714
29458 12487 260
21162 25111 631
26001 5750 100
8168 20043 969
15797 24584 847
17758 1511 362
6315 13155 627
29175 24800 541
21584 15315 396
9183 17941 950
27678 28105 440
15150 4384 302
12322 26723 446
24666 29076 400
1596 1770 498
26123 27634 955
22581 8988 281
1918 22212 739
23520 15356 164
5801 4778 885
10689 7907 112
9023 2301 423
10341 3150 345
28857 26133 205
13177 947 78
10309 14705 413
28011 4535 245
22321 692 531
14080 12204 819
16855 5334 417
11663 10450 398
20457 8740 425
16626 22048 73
17889 19407 567
2797 9181 443
24424 19497 255
22276 7561 576
2882 19108 57
2567 5454 764
484 12566 440
25396 29110 271
9106 20051 55
5932 18103 762
11132 16840 197
3618 24140 99
19265 577 752
7252 1171 895
24942 21132 976
20888 27262 229
28015 23845 313
14626 26247 777
6210 29423 884
4497 1995 823
15112 1032 260
26104 24401 779
10541 3497 35
6417 12883 383
11779 6478 482
2201 25271 749
16149 10098 272
22650 27795 296
433 22807 915
1693 16596 742
28767 29844 222
24552 1077 149
23555 25992 461
14599 16573 447
15241 14724 112
19476 19746 151
27367 15684 748
22568 7009 985
6449 9059 315
20080 7643 57
13442 26283 601
11265 26029 378
3076 14394 273
3621 4871 553
22740 9812 62
20574 1081 356
663 10826 783
18008 3435 818
13490 3701 497
21707 1731 574
16118 5937 369
15500 20130 737
15973 22792 279
24733 5946 607
24750 18845 549
19749 6508 724
17438 25718 947
19593 11304 552
25735 15917 277
24405 16169 105
6593 24577 175
25047 9139 449
27787 14392 233
20181 10698 294
28894 25954 546
28145 9507 447
21591 1210 116
11063 8368 429
18176 19300 754
25613 2187 989
6984 27297 502
23066 7713 707
7109 8414 388
11223 12354 8
16682 28674 330
24266 7239 672
20103 9874 538
4659 8727 824
1465 10154 344
2146 14413 569
28967 18579 924
2695 1544 851
22108 12974 22
7130 2301 845
9432 305 466
16277 8147 836
7407 4526 75
6820 20285 77
23496 12040 233
8229 17373 644
28905 6836 228
20254 3941 560
28958 6153 916
5377 6980 928
1870 20 266
27504 12553 973
22976 24619 621
24683 22255 628
637 10873 212
26970 4005 770
8076 28134 652
24515 14154 397
5878 10715 553
5494 21207 524
22450 9774 391
21625 6858 149
21284 5348 696
27810 22908 520
20083 27633 107
28567 2235 331
2196 25059 76
18813 6195 890
1225 2739 170
12293 1922 145
28237 22308 50
29853 29145 412
7589 25311 829
25694 24042 706
4069 23429 853
25541 29208 378
14289 13951 636
23240 6173 331
16414 13177 404
16264 14804 11
17538 27623 347
22590 23681 209
6547 575 649
3424 13727 234
4232 14573 967
29809 20614 716
16378 6382 710
24411 9222 37
29869 994 346
13319 24041 531
22751 15111 700
23788 15152 470
13806 14944 227
18743 28067 912
21539 10321 372
22206 19146 665
23510 1354 258
15165 28542 677
17045 9717 145
6987 15762 237
678 8648 914
8025 11811 71
29551 13270 29
28832 3833 366
25569 21010 96
4873 2219 617
21470 12259 875
13188 2826 74
27806 26278 91
11605 25661 460
5400 12792 453
27182 8327 11
13912 22344 932
418 29798 254
27190 4849 87
5224 21352 781
11933 17860 432
4789 19518 449
3560 10726 683
18665 29301 832
29902 2688 459
8317 2414 638
12193 3479 159
22649 16691 855
18847 17217 687
1865 9955 649
8 10673 116
13491 25568 178
11887 16711 734
3422 9850 55
257 18790 168
2696 6400 258
17065 9855 709
1690 29001 93
13721 24693 135
705 5957 211
23495 27634 553
8775 807 898
25681 8853 581
21707 10403 806
4957 12229 174
18778 28551 192
28439 17087 87
23382 29193 384
14478 19426 694
21003 164 487
17231 4683 570
24819 407 901
2063 14435 343
24941 15477 947
5459 6987 108
28022 24115 489
9111 19872 944
15562 9924 127
10140 16394 594
19677 3126 576
11969 6593 668
14846 8761 329
8309 23769 593
4869 17612 100
29323 11548 72
25659 25078 816
5937 22457 674
20703 29904 416
14879 24682 586
839 13700 916
1177 19330 839
413 13880 651
6289 24612 51
24186 25638 572
27790 12795 627
11084 11801 566
28635 17926 639
25208 9823 998
21165 2591 82
6580 11904 153
3282 1555 913
5704 17463 259
15483 18787 771
8397 2695 771
9512 27515 596
14294 18602 568
22297 17445 255
28528 28105 81
11508 8971 704
5377 4125 100
27584 7500 421
27757 21905 953
8844 19950 10
6695 12982 159
17240 29997 228
28890 5680 744
6729 22004 527
9772 23330 544
19289 18700 477
15414 16463 832
8231 20953 146
1343 19610 90
6824 10521 983
15621 27492 357
12098 10015 620
23563 21270 56
25339 26522 117
4954 17582 162
26119 19806 643
19464 7390 894
17142 26513 814
1856 20138 384
19844 3942 895
19217 16170 314
26433 10309 811
15134 10371 919
7127 25303 800
21526 2934 754
505 23193 766
5290 9447 184
28790 28694 508
11309 21744 592
7860 4569 432
304 6048 122
5039 12703 888
14210 13699 963
13580 7832 579
12508 10605 155
21676 23089 452
4155 15736 680
6009 19894 306
17892 7426 210
29745 27558 932
22610 9663 945
3364 21477 471
4590 27091 579
11031 23501 388
20638 8024 765
25472 22932 139
26848 6361 362
28638 15620 453
13425 9539 441
23452 29853 27
20763 2750 107
27657 18347 733
16861 21746 860
17501 24501 792
17563 20357 761
19552 20971 667
19450 6509 25
7456 29216 575
14474 6370 110
14227 28656 307
2759 3049 328
13518 21820 475
23224 24465 875
11326 14444 191
11744 13843 574
843 14198 40
29628 23634 352
16877 17612 919
22648 28599 431
6610 6463 106
7377 18862 142
17023 12673 129
5107 20793 889
28036 8999 805
25396 658 691
17035 21030 741
27837 2862 203
24834 12205 462
28112 8508 214
27825 15893 507
21020 23335 45
1076 13054 761
11929 19933 859
24161 5406 14
9919 3924 266
21239 18057 268
8733 22143 297
29479 20235 852
12682 20631 139
26351 11 220
3275 18031 674
14280 8475 382
4973 19761 430
13062 3591 543
19358 12010 587
22326 6772 910
16572 24283 903
28715 22903 834
1260 17442 853
24130 17277 559
13039 2410 861
21878 445 36
8165 13611 340
17710 19904 561
7047 26412 105
25466 27668 90
14939 5458 182
25850 27904 84
572 5235 874
28909 12596 836
3476 29100 189
18496 2063 653
9842 24495 356
478 6767 888
4129 24167 144
19817 3023 879
316 7328 362
27042 21501 774
20448 9566 183
8390 28733 348
12572 20999 474
13045 13047 372
13042 9562 430
17312 1787 37
26441 1343 481
2643 29837 610
29095 18584 524
20436 10383 981
25746 26636 406
6303 1072 16
26398 11813 684
22430 3813 260
18365 18926 499
22405 25558 239
10368 5091 99
26749 5351 691
29540 12563 857
26846 23866 726
27621 25581 667
22054 17286 316
25929 29855 675
12928 8635 230
12033 22978 576
9531 3524 612
25915 17509 638
11191 25326 416
6399 18273 970
10727 21880 963
29130 27074 607
4278 7438 757
11312 3144 890
14408 29180 627
3355 2946 181
22548 6323 462
5873 8666 664
10195 4348 63
317 26757 225
26301 18560 638
5934 26950 68
11877 20491 446
19567 17064 620
1788 24111 476
11500 18573 603
12353 2380 168
26559 24746 800
20140 28800 773
7502 28887 140
17157 6424 928
18465 17805 953
27360 18573 481
12682 92 340
21258 15912 658
20865 4640 733
2412 22828 293
13475 24560 855
28885 28182 280
24189 24234 930
25290 23324 882
24375 20321 616
25024 4576 456
2589 22117 686
13108 11994 187
26902 20310 315
21496 12855 960
13383 13559 725
8927 6593 292
693 20903 401
11648 153 44
28846 27056 335
8469 6977 729
9316 27824 724
2962 1329 519
24350 21875 320
27111 18176 933
12494 5768 875
29882 26212 984
20154 535 380
7895 4397 445
28821 15010 231
15546 15193 783
13858 11601 514
9431 21581 188
15182 29693 359
27436 18995 825
4713 3173 264
26859 18405 424
4831 14146 786
6587 8569 656
13225 25413 48
20996 636 188
11969 22670 332
10621 14119 38
4343 9943 449
7980 15467 943
12189 26858 706
27360 11863 867
22198 19421 113
26562 9774 261
1054 23623 937
12560 3936 357
8673 24972 178
20803 14108 45
20531 28128 811
3611 10106 288
3426 21110 434
19204 25724 475
19129 504 964
14216 26237 671
25568 8844 319
21198 13636 511
24306 17201 564
28936 8314 409
3129 20313 971
11308 8469 45
16883 18860 622
22736 20900 319
18774 21472 253
19440 28441 702
6890 5324 552
14406 6593 452
21910 2850 192
28756 8430 71
27124 21627 564
29652 14387 950
2355 6000 135
11709 15000 889
9707 28994 895
21610 13103 205
26081 15644 665
25300 3217 833
16451 13198 767
4357 10420 866
27037 3803 50
2971 7756 121
16913 28972 611
23871 15611 18
20901 13386 594
17055 21910 486
12203 23321 373
27174 18469 443
226 7202 90
21804 12050 443
19471 20384 683
15166 22214 901
24132 9434 764
6452 1701 550
28726 10667 991
13183 14692 668
26439 27227 75
22620 28028 657
4032 7980 459
6418 4818 486
24642 21054 35
8082 20745 100
14289 6071 337
1231 25881 152
24718 22967 985
11741 7651 105
13588 29360 602
16105 2709 238
9378 7313 782
23335 28499 72
4448 13733 661
2564 1921 994
12907 15499 408
781 14009 244
14322 5677 682
22579 21163 613
27516 24487 817
24334 8544 950
19699 13054 575
15236 18990 308
10285 21135 628
4935 21521 393
19371 15472 716
17558 29616 228
22626 29766 182
6042 7566 333
8385 29458 370
27782 3121 889
634 3702 266
14749 24284 336
9235 13183 393
15411 2027 980
20049 27269 96
28579 569 674
28562 3741 106
2002 10873 699
21359 4566 630
19016 6808 119
8114 22106 202
15547 20064 637
25426 25964 870
26489 11257 874
18252 28404 889
14255 21976 654
11924 23866 402
19259 13468 152
21195 27271 241
15908 3768 848
15346 29126 126
4282 1888 451
21595 18081 779
21174 1331 299
8393 20623 30
2607 10633 33
398 20883 982
21378 19341 998
16703 14262 824
22992 3092 788
357 18651 865
19287 27725 558
23600 3815 594
27565 13631 930
20541 15034 131
6260 21017 798
20538 13190 671
24705 7701 24
27116 8764 833
17246 24668 368
6073 19752 630
16351 26505 907
22970 16257 352
3133 20830 483
15235 15953 187
22632 2644 967
4386 17686 156
24773 10333 318
16430 1415 115
9592 9435 564
25348 23244 624
14545 1709 211
22076 29235 858
21391 24684 637
13726 11215 231
21818 17799 240
218 4215 319
22832 4858 947
8162 2557 82
17797 7025 226
5351 27762 834
11539 5063 978
16504 3430 618
7396 16974 274
29066 4328 220
7791 3460 385
14774 4402 801
3104 7667 981
18470 25783 672
24722 26615 752
29412 13225 748
17221 10080 726
7884 12851 473
12073 8167 965
14707 6542 668
14695 10111 959
25391 7206 997
10526 380 912
25823 22996 742
15528 21100 945
23183 6155 320
12681 22695 880
29903 7825 287
27388 27135 528
23514 21777 428
28745 29580 525
29642 8709 843
21104 28662 674
14610 14428 215
2311 8943 935
15377 29384 272
17458 4289 569
29719 28553 365
14060 9637 262
17529 26994 975
18073 12183 894
16607 28220 231
9846 28263 860
962 25942 419
9369 17851 441
15886 4014 252
18004 1685 521
1219 8342 517
6553 2018 598
9343 27834 344
1249 22317 165
21489 4173 814
16093 15841 962
11434 28175 411
24792 14938 635
13989 8803 358
5530 537 55
26515 26906 419
9310 5703 484
13228 15030 37
14198 11831 796
22778 28735 260
25285 14909 425
16803 22589 337
16071 1387 473
6098 17676 598
17250 11376 781
4124 6698 464
18623 10178 626
20369 17814 952
13069 24898 298
7471 12337 782
8220 22048 65
27307 16550 412
4567 3632 195
25243 10473 352
20156 26440 497
29179 2782 643
10212 12505 290
4630 10456 842
13725 4421 368
27538 5267 586
16328 10380 900
27312 27615 110
21207 22876 492
19111 1860 317
24985 14342 593
10926 17339 454
5906 24764 889
911 26574 811
29391 27029 440
29374 28318 804
15995 14223 890
6310 15903 394
15023 3356 250
5194 12018 631
6318 28494 999
7017 13875 277
25741 23308 950
27860 29441 617
23653 21035 565
21029 22445 139
3533 22216 413
17608 19643 392
29779 26008 692
22014 27877 474
6721 5467 446
247 4828 89
29706 14819 877
8761 17209 619
3975 13771 693
18436 24636 931
23174 25974 139
7930 4047 472
20697 21287 776
26319 18265 227
2029 4402 724
13622 14046 683
9119 2343 379
4553 1183 284
28772 4185 783
24008 24192 521
12716 27439 564
9072 2717 866
17176 11453 392
6543 24957 879
23516 16640 513
13050 13244 687
16141 17055 401
15648 28744 523
16978 10715 656
27570 23336 349
26720 11320 268
29786 5387 14
11549 20573 927
21606 20215 124
24985 18984 935
3292 24053 57
22067 4772 654
29660 7715 6
1111 28629 182
7409 1486 270
26132 20651 353
8510 24045 194
16498 12892 343
28317 23904 504
20976 27105 314
18835 17189 959
11979 5064 938
1882 18253 22
11168 26288 415
14046 15876 537
4176 10821 24
15127 25485 35
6600 26234 120
25630 2760 928
18285 27819 454
10046 23590 842
20357 12008 556
4234 16144 895
18403 12464 90
29565 3554 1000
11032 18604 796
9699 14293 394
14097 5377 253
4867 27385 514
20970 14309 600
15061 10096 572
29624 13554 281
2270 5817 193
29387 1443 305
21239 29796 295
18777 7521 420
13105 16144 763
20921 726 566
10047 10917 541
19092 13440 670
5352 5072 276
28325 24720 787
15299 19427 216
164 1986 360
29017 5544 621
4180 767 423
122 5409 637
27696 27752 229
17238 5035 771
14756 920 52
14905 25823 510
24103 7454 941
9687 21916 419
9348 2868 789
22572 17385 687
23314 28200 32
16836 22273 69
5776 13596 483
6483 22308 841
18910 16070 912
23653 29953 582
26076 2011 416
8227 25881 294
25797 6686 706
27253 24027 683
13356 17572 336
25335 25005 572
28579 6546 775
28630 13532 507
2583 26865 156
16905 25109 390
29057 15323 293
25188 15661 916
10169 2371 913
20196 24850 31
20050 2907 851
7311 3742 616
6410 29971 489
3290 26854 816
24437 4254 501
18505 22940 305
21674 25689 825
21786 19649 251
24744 22903 821
17834 25865 363
8310 20007 986
2116 14065 465
17141 12125 683
25609 23672 17
16470 257 43
25944 11424 898
23257 2005 814
1355 9689 11
2888 28157 799
9586 29418 587
11311 7229 443
27984 7543 646
29089 13624 667
14148 15126 37
12079 25373 302
25649 12861 60
11028 26473 316
23369 26488 891
23948 13864 719
17437 11110 870
17937 8796 862
18951 11887 555
27177 16974 150
15829 37 688
15107 20635 535
8792 20340 969
6309 21993 737
26130 24679 140
27666 13289 277
17047 5010 913
22109 18693 237
19493 24374 969
23836 20436 221
15068 29363 132
2853 713 756
23028 14430 60
1276 24145 22
20411 24733 124
25650 18639 399
22224 6698 368
6925 12207 165
6724 11167 787
12257 16493 284
6993 18944 738
26743 7181 435
28394 12751 777
3862 6081 697
4372 29124 920
15314 29701 532
28574 10945 469
29853 6327 938
22865 10131 356
22758 3794 553
13598 26646 526
26145 10517 934
15475 17611 60
6321 1501 80
18228 5904 802
25528 6548 857
6122 17767 244
24617 27260 305
11513 1560 142
3780 22424 742
24036 16671 541
2582 6999 701
17262 14878 327
1531 26863 59
2539 2566 343
23898 8930 643
1353 11476 505
4278 26482 514
28694 3307 765
10309 26131 603
29685 21413 430
12711 222 44
16563 21251 472
8220 24221 686
13540 12556 465
15576 18596 601
14626 10392 503
5601 20474 429
18757 14658 211
28004 21453 966
12138 13339 213
28773 21949 817
21115 14525 334
24577 11705 222
10932 14657 500
4364 16382 707
25263 27942 449
25756 427 36
8322 25804 977
14840 8763 950
26106 16112 707
27855 26704 223
1793 16035 463
21770 21521 698
23063 28820 427
594 14045 119
16573 15695 937
19957 20285 881
3397 11640 71
7330 27052 184
19094 24656 162
26229 24302 727
18092 3038 787
6195 2629 28
7168 27608 55
21836 12963 990
23100 26113 429
10292 22693 990
3883 27269 928
14030 3640 927
2948 29238 783
15149 20903 380
19226 15250 514
20113 22450 472
22438 21473 724
6985 16423 508
23846 9665 856
21475 6598 834
23425 10527 87
9139 21487 243
19959 18136 164
18799 26821 2
10033 29385 192
10419 19807 817
10041 109 968
13207 22526 547
1943 12655 80
17857 17802 721
11643 22825 610
8715 5428 162
19753 29538 511
1718 17451 536
6550 9297 528
13485 29307 986
23541 21890 404
24030 22673 332
14505 4595 391
1525 20809 593
11234 28047 581
22942 21027 15
28724 4180 699
8269 1827 547
28365 19679 279
8761 10995 707
24023 19139 186
9834 20390 781
16177 25075 560
6572 2517 88
20597 9704 521
9105 15506 708
23172 3951 627
4558 7936 701
5244 28486 252
8702 17425 167
7281 16932 605
29142 29575 460
29043 4080 296
29410 8656 186
18829 6281 366
6856 29092 208
22036 5668 291
24733 5681 357
24867 6506 633
4264 25764 875
20320 13661 678
20358 11778 733
7794 13123 791
14127 4845 843
25881 11276 545
22819 29515 961
22497 27674 720
22646 14196 4
14762 8933 328
6131 13762 175
9385 26554 604
779 7977 341
16604 26411 925
14600 26933 760
13585 10695 826
1636 1368 508
21614 26388 198
9689 3538 713
4548 10774 951
4618 1642 426
2851 14581 689
18646 5770 900
23831 18230 537
17301 7560 799
29573 21532 461
25119 704 150
28320 4712 172
23459 5592 717
22245 24162 602
3251 14908 786
10001 26602 829
13768 3277 912
13479 25902 204
15703 7217 310
7907 21903 965
22563 11084 937
13811 12269 44
26575 3104 5
5540 21053 768
10747 11077 159
27365 13253 408
1964 19362 461
29822 7710 326
880 4595 391
16593 15061 284
24451 26966 337
23051 116 858
29202 28064 877
14615 16693 368
26573 12569 761
10517 18671 441
6684 24309 692
27324 18495 547
22008 27156 872
17389 14868 470
20930 17220 354
25213 28929 865
8441 15651 807
27406 7971 356
11359 17941 336
23402 28884 98
11275 2402 289
697 28687 146
21327 13765 464
11100 8042 243
4150 19816 967
3197 24194 446
11274 28801 551
19096 19188 808
8131 17798 388
11350 12075 995
28368 2088 550
14911 27788 74
26457 12831 723
25929 6408 53
3290 18483 459
3496 26203 277
21582 17560 656
29362 22569 879
9535 19663 253
6562 9634 590
7561 26643 132
22935 14396 987
23892 251 329
19827 18179 131
26832 25178 437
20315 18717 234
25571 27826 54
17176 20728 915
14392 14295 589
22916 7325 740
22366 15693 248
4825 5695 720
27111 21371 618
14047 22259 986
12283 6281 59
8183 9595 778
15698 5028 782
15671 14836 721
22955 2869 109
17931 3844 686
22659 15010 920
16605 18802 562
28438 2085 961
17106 17291 6
11638 18608 811
9276 25308 129
10866 18370 9
2028 4894 83
16070 406 613
8296 29822 234
18522 7392 100
18416 421 504
8358 9317 938
9412 8597 443
28320 11381 889
10657 19977 601
18503 27096 930
28691 9023 782
22837 8978 467
16973 2715 563
9521 24575 297
1728 642 421
26632 28017 125
19250 25975 646
15087 10490 741
21074 21889 99
21222 2872 792
16715 8435 801
23552 28001 365
27911 10331 16
2757 28036 826
21867 23674 757
24127 26749 696
19000 22373 213
1047 19007 281
7073 18909 196
12465 5492 172
6221 26406 401
17715 24297 457
11201 3716 339
3150 21112 16
4050 28343 851
19113 19443 218
29202 23600 990
9676 27410 588
36 71 938
23793 8303 485
4487 4330 883
6144 19266 367
13811 15435 953
4760 21889 568
21163 28003 842
14777 11725 793
27364 15519 230
29838 28364 664
17238 24023 211
18197 19355 842
4963 19974 126
977 10773 7
25652 29817 385
2306 23205 995
17901 804 361
20786 19825 711
22067 13648 957
11049 20707 956
14742 18632 580
17938 21074 37
12251 7078 717
15262 3347 853
21840 5698 918
19212 22044 777
10418 20293 847
13815 17833 425
17570 21271 546
28195 14358 118
20048 16704 545
20861 17347 392
1328 7968 799
20927 27616 485
18976 17859 995
28871 26759 284
24234 14024 173
28954 26812 742
9488 29564 327
9817 16657 774
22851 26217 737
23540 7442 585
25345 26575 911
18010 22173 322
5412 12000 58
13009 6288 849
15177 14194 912
24303 11292 712
21834 21702 685
10853 20577 259
2543 10176 454
5113 24555 692
6574 28487 414
4042 2935 935
10711 20926 649
25689 1643 736
27531 14964 1000
20381 10570 204
14046 23307 334
7625 29725 81
10326 6816 23
15224 8889 184
21666 17361 672
23397 15365 191
7975 17841 396
10413 1336 280
8381 16967 720
25401 4495 361
21823 5444 984
27978 14220 476
27502 10159 139
8793 10507 537
7338 6640 13
23385 2874 631
22822 26850 707
29509 8441 27
13448 13338 777
21104 6884 174
21357 19487 545
11602 23151 924
24648 11835 724
25475 5393 759
17331 14626 577
666 23330 112
10148 20625 588
8273 10799 316
18077 26812 918
19026 3676 996
22176 19226 239
25262 3011 224
5937 29969 688
5964 3699 438
23082 6223 802
2480 13434 209
5000 26822 955
10347 28502 962
15208 21426 63
24502 17383 822
1599 7440 467
29532 4351 30
22439 24573 587
27267 24133 971
10252 5341 476
8301 4638 208
6828 8882 97
26574 7837 107
26654 24454 718
25576 13278 790
28839 22334 745
25140 10776 710
7380 22773 289
25881 27745 639
27246 25121 182
23395 18642 755
25650 16675 349
25830 610 336
14151 5813 327
15917 27664 934
19897 22203 230
3010 13530 713
1861 14312 891
24025 1980 654
22205 21483 262
10915 20225 937
6141 1417 826
26925 24941 625
10221 17837 291
3429 26190 975
11575 21889 641
16823 29766 17
3122 2640 570
21541 4497 171
25323 27806 998
22977 1266 763
11035 16093 84
7114 28407 748
3793 15966 302
11919 22631 268
23806 1280 761
27067 11634 124
29483 4700 852
10400 29897 591
7450 10591 162
9928 29385 929
5452 20068 266
20287 10836 118
13867 16501 955
18885 27704 4
27273 22526 740
7044 11349 413
16856 17644 600
27864 25925 495
10836 13 787
18372 15313 29
7136 26841 567
21664 23844 699
3181 5560 624
14583 23612 271
14056 28569 351
21454 22766 104
23854 15268 170
29063 23816 862
11121 25328 831
29716 11680 881
4699 13336 657
24828 5271 563
5340 1536 19
15557 23037 486
6159 14377 908
18020 9595 699
7362 2045 42
1303 13789 291
6220 27369 264
20724 8918 364
7130 12983 491
10925 14058 698
13421 21031 921
24687 18893 904
3173 23231 505
4235 12026 669
5340 24910 526
10594 17890 553
8921 22585 357
25145 16156 86
14998 6664 192
10126 26789 445
13467 5084 811
11116 6755 826
1802 2235 76
4292 6135 92
21788 2719 887
14037 17180 283
18626 27594 498
1174 96 848
14374 21129 210
8812 19072 470
4376 9850 52
7546 29979 27
23822 15140 343
11968 21202 509
25581 16326 698
13891 21498 8
2428 3890 235
17347 18920 469
27131 23237 109
26469 14577 443
292 26731 453
20817 20860 218
26687 18932 828
3988 13633 34
6773 978 810
13353 7612 633
21342 25027 268
20356 11318 24
20125 2954 139
19266 21244 758
5737 6985 874
25067 29109 488
9270 14702 131
26391 3200 104
26697 25103 486
19233 23534 511
23488 16138 964
15080 635 354
14557 29086 672
21512 14972 717
13497 13128 594
9482 11866 699
28611 20696 94
6258 22548 613
11609 19392 506
750 25794 576
14729 15724 194
23059 23985 522
12080 22454 939
15767 10121 584
15188 25067 333
14657 11732 652
9888 1603 230
26089 24568 57
9878 398 168
16861 26385 380
28163 19589 603
16056 10870 881
14673 15193 437
25145 26379 677
2980 2453 365
696 25781 920
6814 26672 641
22935 15159 532
24652 23915 54
12503 16093 836
8257 3391 741
24760 26679 289
6336 21471 653
12625 4238 148
27152 25830 245
14660 19147 541
19759 28202 799
25254 27772 777
9967 2260 49
11291 29443 22
27409 1488 427
184 6040 977
13506 22361 418
27761 7325 666
20405 433 915
11857 27812 246
19052 22660 231
13989 3048 993
15751 23862 320
27052 26313 383
17308 3818 96
9568 11181 373
6606 23498 550
26225 10677 614
14009 13297 90
3336 28876 230
7174 4894 760
23571 14748 42
23333 14372 965
9116 21043 513
12219 15499 572
7195 26773 469
8329 10823 546
23343 3325 361
5702 22397 874
3407 5190 168
27825 28957 738
19017 12366 113
5050 23673 569
12026 1600 662
27408 18525 531
15045 27207 529
14012 20523 643
5581 7171 599
9535 27522 363
2865 18104 583
18088 27873 618
15208 4726 46
29724 21476 754
4851 18132 567
21564 15146 67
8379 19496 733
28275 17177 571
24846 28314 238
7381 14712 474
11981 27454 14
26964 15668 171
3274 16743 580
9796 6717 902
12967 8923 429
2762 15405 126
12475 26173 320
14670 19590 374
26401 17628 973
19714 19800 334
26593 8055 536
19026 11031 92
17912 29032 680
13731 11256 709
29227 15478 17
27300 15685 113
8519 16078 996
27276 20822 277
4055 14100 116
29339 4339 233
2244 3802 930
26038 29284 61
10970 8642 210
14350 27786 664
15588 26935 24
25451 26759 975
1311 26647 425
8725 16106 286
25215 12844 169
4987 13464 448
770 16970 919
6821 25152 663
14246 2507 947
26465 7937 208
4248 22616 494
6896 11467 606
13639 19077 754
29546 4125 371
14451 18653 401
24917 18958 539
23817 10206 459
5603 13583 47
25460 1345 566
16533 26918 82
27221 19754 851
5723 16926 686
23115 20766 860
26366 3797 494
19799 23558 633
3741 29105 678
6931 8374 871
5746 12517 53
9402 18721 290
11378 19044 976
6392 25132 274
7494 26489 902
26291 8121 204
9184 20350 550
29720 13392 716
15695 12985 945
10265 1116 892
25778 11182 392
20495 19556 919
20998 9471 798
25933 10223 260
28213 29036 153
12759 12064 916
13004 24627 536
15209 11429 215
15657 27042 917
28154 26438 995
22086 2917 611
20619 29845 559
9242 7726 53
22830 62 538
14518 14549 164
12268 16648 145
14360 9225 167
17783 12992 43
12440 26696 544
9626 22384 415
26615 12064 176
17827 13398 59
23720 825 40
3550 15512 831
8485 20157 611
10404 25533 224
4476 4624 35
16322 28754 521
1279 10849 255
3748 13955 771
20196 29680 484
21448 3806 399
997 702 803
23688 9750 766
21162 9008 253
5 21486 248
2363 15811 773
11208 22762 664
29750 22463 669
1345 811 382
12423 22097 20
25809 6297 830
3976 21903 758
28977 28098 353
7160 1254 842
6942 16601 484
20220 29751 434
24203 25131 858
5053 23697 918
6141 14291 453
27451 20602 719
17559 16757 325
17913 8839 401
25489 1781 816
25997 11064 440
25333 5501 769
2814 25717 440
12980 13321 835
5500 213 767
17440 684 433
27835 29419 521
3984 17730 788
6482 18362 192
15390 1103 320
1407 8932 49
23248 9304 245
24571 3464 871
24226 17371 193
16077 19448 957
2644 16596 960
17468 20126 220
27671 20564 189
16706 18694 136
29126 20005 196
5970 23603 149
20698 19002 369
620 20210 716
26804 19222 78
13668 26883 605
26065 26519 654
28716 3349 213
16358 20657 771
14788 28851 404
2781 20567 402
24045 16322 34
20209 19638 685
15350 3271 512
3785 17201 456
27109 21544 669
16337 13403 908
22843 26644 658
8870 15410 308
25414 1037 597
1405 24692 679
11035 3957 899
25747 14975 817
29042 6942 2
27162 27268 164
25251 14037 113
28343 18081 286
14688 28935 17
9182 6964 436
26937 5087 789
20185 7777 870
16371 16866 992
19750 7713 98
20072 20618 575
10374 27884 583
28903 21209 173
7516 15149 397
3590 16752 164
24286 9454 261
21784 26647 754
6740 6468 468
20402 18269 447
18761 28553 832
22362 16560 179
3546 22712 154
10820 8925 357
6219 22736 772
9553 24941 779
5816 13961 195
24070 17655 269
22415 4750 496
21615 29715 156
13798 7883 925
10413 10087 752
8512 20168 185
5697 7268 805
26646 15988 890
2065 20936 909
15544 2632 471
11267 28040 313
23849 23140 597
13389 23331 985
23737 17449 719
16363 4320 286
9930 21608 875
6399 6012 61
11177 9062 723
1748 9126 523
25966 2570 628
18453 20363 376
11640 25539 240
17510 5264 821
10174 261 505
16904 18146 854
22410 22273 14
14379 229 524
29860 5903 281
1970 197 393
17311 21156 733
9953 20838 450
16253 2449 311
20156 12128 551
7751 7005 566
3895 9095 915
26354 8829 718
755 19736 436
13936 19927 247
16433 20136 267
25364 16977 512
28646 2695 346
27778 4106 140
23501 22040 861
9429 28589 890
2457 25830 726
8897 3801 938
29894 2684 216
22653 1325 117
26196 25265 485
16807 17359 429
4441 21252 199
19289 13464 665
14698 5242 351
23973 26692 981
14751 15296 128
25877 1420 634
6210 21568 795
10510 10079 100
3232 7230 876
22056 20807 831
1458 28842 811
10308 14588 651
26257 18697 401
21454 19011 593
12716 5029 385
733 21467 534
27186 23590 21
1095 14821 585
4948 21203 953
11989 27027 501
29600 21221 540
22641 3747 909
12095 13082 209
19233 28931 901
15433 3 260
13017 7139 869
8142 21919 15
12485 25303 254
25650 24139 487
5368 20936 440
13093 22553 498
20022 1167 93
2046 14611 752
24567 7352 276
29446 22907 747
4071 28732 245
1687 11297 890
5501 28032 630
28777 21443 901
18871 15884 386
24396 25106 933
21691 25567 447
6398 21131 115
18451 23989 975
7018 27578 554
4427 13579 168
21523 25340 345
17444 3822 632
13537 25542 969
25705 20027 767
26527 13571 846
20796 25571 434
16144 2281 672
10967 23197 522
8654 15550 209
15695 23613 578
886 26292 535
25982 3117 259
20360 20136 625
22247 20934 763
20233 26318 539
19537 11833 949
4371 8860 369
12834 1722 556
11913 21388 624
647 10067 334
12642 6869 996
5613 23216 89
12763 20844 826
5311 19268 294
15393 28209 965
10429 23617 224
25610 4835 973
17308 8818 407
29963 12137 122
3218 8789 911
11961 25918 99
18032 5480 189
28144 10486 169
5270 2248 541
28003 10517 606
8962 4829 375
13019 1191 972
26614 14160 438
18238 2051 287
9791 25552 278
11627 11697 218
1837 1548 443
5930 21777 527
10638 25445 430
8003 6186 878
5500 9669 625
8350 28199 11
28203 16073 76
17407 11497 300
15717 22529 872
8462 18990 605
23631 18349 423
26107 18560 376
20963 25484 703
24465 672 393
26774 1623 681
746 23520 705
13250 25011 574
26972 26958 165
4195 25334 399
555 9200 423
24241 2814 341
70 8918 965
23865 6355 63
1682 14515 57
25614 6120 691
24146 25522 437
13590 1680 394
16493 28481 266
5493 25219 969
6119 357 440
22091 4474 362
21601 1082 572
9218 12717 984
12037 21985 961
28886 28910 622
28968 27391 173
12750 10391 600
21388 15573 121
24377 13015 508
29045 21587 186
2913 25899 779
11127 24040 608
13934 7597 998
29049 14388 713
12778 20165 41
798 14207 783
24558 27485 408
23051 15075 539
12842 25808 917
20943 22809 565
13657 24807 288
630 313 226
19837 22627 903
20984 21028 48
15233 10791 223
3143 29108 599
26217 24300 196
28948 28704 14
1934 14049 752
96 7162 672
7355 1287 547
19196 21249 693
6980 12362 518
13603 28263 1000
22280 18955 137
29958 12564 688
20771 23417 19
20444 20355 991
28294 20023 280
10254 17293 747
113 14057 422
24038 3451 851
12831 23524 763
5824 7866 897
13226 9114 924
8986 10117 839
12793 18782 957
8488 4359 691
17944 18245 578
2983 318 811
23914 26318 947
17059 4343 44
6684 26617 42
10391 296 748
2776 15637 375
11032 15172 515
7201 26025 661
19864 1025 85
17044 7464 846
13150 19544 313
794 9277 248
21485 29876 446
5665 18768 60
18873 8952 876
23568 13245 745
27786 26620 693
28472 16153 591
21417 25217 139
22410 9840 675
61 15560 51
13792 6315 857
25507 19516 42
22574 3694 321
24810 16997 48
18762 11827 994
5526 3147 624
7656 9439 936
27623 20589 432
18958 17169 141
25786 5138 551
29322 18520 88
18904 3961 23
24812 18410 273
21027 26863 132
3878 28691 36
5760 1292 516
3940 24822 364
7080 6946 272
22736 12575 856
5099 4706 499
3187 24292 955
27332 11142 662
1916 21584 90
17622 28339 461
26727 20170 228
24498 10490 22
867 28431 836
20674 8624 235
18692 6944 176
4769 21648 169
10220 356 57
4406 8417 921
14891 1108 819
2979 19154 662
11995 21546 198
11937 22631 456
5187 23309 622
12257 12460 60
18416 14878 947
6797 27219 254
25879 19374 808
15342 14075 529
16973 18878 90
8395 23714 378
18439 9749 792
14054 4139 475
13223 23277 591
12594 11659 602
18773 27936 541
12912 24501 189
5500 68 312
3484 18335 215
5047 1029 514
3074 6248 276
3009 1109 127
16936 11234 292
5800 20951 68
21300 13540 203
25922 15718 70
10075 24334 443
2125 23458 245
14200 12587 451
20327 1651 267
13474 19252 713
26149 5725 23
22479 25096 999
10637 19267 836
29989 28118 451
3288 27830 249
18520 25673 63
19203 19234 276
27515 20450 304
29195 19231 78
14865 4013 298
14798 17484 527
10474 28654 1
8311 20393 774
18195 2791 306
19002 9595 362
2255 8956 391
11657 1974 412
25400 17700 179
8446 21570 94
12543 25075 307
3470 1533 498
1449 16354 189
634 29981 847
28314 15085 668
23795 1388 498
13905 8754 690
29199 13106 288
25131 554 756
6701 29351 599
23172 4312 313
24378 17995 50
26036 28219 84
27659 24547 923
26022 24696 180
22416 29732 276
9414 1784 801
24137 25773 690
27870 6934 143
3145 6780 348
7878 8674 199
21164 4947 598
3520 17770 266
6588 19403 367
11796 12607 182
9394 564 13
16562 25069 745
13868 20627 414
17949 28702 113
8869 17288 848
25569 20125 586
9472 22275 986
13833 8324 310
20951 24883 797
15785 10630 855
28544 10313 681
37 2843 555
8501 17302 967
17926 22615 260
25361 25661 817
11818 29706 78
4016 1028 485
21059 13571 667
28197 21142 93
23903 19940 537
28689 20159 272
6745 15558 70
10961 16939 350
26750 18335 739
14850 29212 977
1780 9909 397
16601 28719 763
19126 10705 794
24857 26644 154
24039 13423 345
16973 27912 835
2181 13800 671
3512 867 979
7278 7994 800
13553 7767 522
29810 25501 243
17821 3123 785
28508 1619 794
28440 7116 563
27390 19436 385
28084 21321 50
14341 27526 547
863 28641 398
29558 16984 3
25972 25577 524
21847 17098 194
23600 37 546
19113 7996 474
23749 3535 366
16596 13469 81
14652 19770 420
29496 10274 816
21727 4155 191
17872 29199 38
15123 29975 377
8222 27484 425
26746 19805 822
27567 11230 577
2493 16290 528
25310 8665 561
11293 549 593
18132 7999 647
7745 18380 947
901 873 383
2645 23845 130
18926 10471 294
10621 28034 31
13479 1486 330
3679 14223 991
16287 7422 922
5352 28929 730
27981 6875 387
24440 7750 113
12853 8289 192
22855 28407 710
15011 4896 604
13728 14837 583
25886 11162 506
13329 9367 619
14519 4101 471
29483 17899 156
15620 11671 938
25968 9356 1
27265 4883 514
28835 6439 862
27512 27036 186
17571 5112 5
3067 28050 177
12067 3274 689
25631 13608 786
5755 5351 292
21455 15538 748
22741 11208 595
19750 1528 91
19464 22320 974
9936 15373 155
11104 25867 369
13135 5264 477
5488 29534 229
1961 29273 8
5752 29871 602
7864 15604 828
24054 7589 575
11579 20439 404
12224 22271 290
28511 13516 72
5868 11022 199
29602 3091 28
14647 24157 858
25019 29629 948
27389 29830 203
28408 1051 989
13358 25208 750
26525 29225 279
2286 23650 442
21868 15940 766
26014 7986 71
7074 29589 354
27626 26606 372
17144 13294 13
16171 22635 722
10757 28603 946
21534 22212 342
25415 24018 916
5223 6233 672
15697 16750 798
5270 9019 981
18498 29403 757
21491 4472 816
9200 16760 411
3976 17161 275
7971 27599 916
20635 27251 282
623 25714 566
22349 18233 745
15713 8165 612
15849 27086 565
2678 5323 585
7929 17980 860
17743 10098 957
28578 9493 660
7642 9379 10
3844 11450 491
21065 22503 877
28134 19692 259
17962 27154 496
28322 27880 455
14883 25890 20
24088 28952 433
4669 8814 656
12190 26186 635
27286 8962 108
6230 29536 817
24864 21664 935
14625 23233 375
18077 4954 400
14110 29265 705
26561 17764 624
25502 27330 56
27620 17835 652
3693 4468 270
774 5733 49
2638 24916 506
15889 28930 775
7909 18632 831
5832 20541 769
10282 23754 216
19081 2183 956
28397 17916 442
16299 1288 484
5963 9256 859
13657 3343 687
5345 24209 900
7431 7127 451
11309 16981 930
2296 20121 446
834 11219 477
11097 15148 101
25101 19643 233
27276 2301 501
25805 3686 163
9647 24400 402
20907 13875 981
24616 27412 334
29848 23117 782
22161 7418 682
19957 4230 958
14244 21865 385
8116 26405 100
28848 29371 929
6111 7479 774
759 4219 233
6923 6410 821
3073 25058 998
16968 10233 897
25505 23569 847
15869 24938 113
11731 14622 733
18597 15659 150
19623 6999 235
2289 262 337
24326 3492 409
2867 18067 701
1620 13725 520
26533 27778 788
10317 6941 998
14519 9693 529
23022 19992 168
4006 28362 411
15513 8396 494
7693 18690 535
29569 27307 48
11282 9671 775
67 11661 177
1828 15688 384
26535 17225 260
14301 873 409
1181 7488 3
20226 25862 372
19361 15152 598
4174 9317 402
21070 7611 345
10941 3889 271
14246 17375 283
20673 27872 932
25648 23038 916
352 416 65
13411 998 246
20841 7595 593
12267 17620 793
3232 17455 32
17865 8510 250
17061 21159 651
6484 6397 120
6680 11229 601
27334 25891 306
13958 29254 435
20162 23554 116
26635 29236 783
10719 17119 443
4781 6346 821
17976 25737 658
3482 20897 835
13232 2067 973
11818 1356 148
4550 12551 301
11710 23688 76
3574 7171 613
23422 21659 474
17349 25434 66
13778 10684 232
11149 3889 543
20986 13423 219
22501 26946 935
7230 29203 940
4452 17271 818
17770 29186 51
10319 8184 113
28732 3153 33
20290 5609 324
25593 27704 565
7932 15250 255
24328 15697 608
11379 15577 656
3542 3559 998
14924 10188 961
13681 27476 112
2952 11428 508
1159 6088 945
4701 15705 541
24823 26788 749
3912 17636 600
18281 16634 611
18894 12280 698
20335 9860 706
1103 14807 204
601 22596 994
6359 22538 830
1347 16085 546
1733 27332 514
21006 5557 898
16907 3062 462
1149 10770 564
14769 6351 572
25155 15801 528
2558 19871 805
22371 20147 965
26180 27204 246
12050 21457 146
12455 10129 22
3875 15172 698
7830 16278 279
24324 6713 391
7068 26398 925
26579 4612 646
23749 27340 109
16418 564 443
6662 7532 699
1268 4976 265
19888 18690 599
28118 11308 862
22308 10178 208
9380 14831 970
11562 13023 662
12118 24716 974
27780 5163 375
15964 22297 134
15918 29888 446
4599 4928 625
704 15978 556
18659 29210 378
3428 6262 849
15713 8201 119
15664 3481 64
4255 22791 565
26452 19357 46
10032 4468 831
26534 7214 793
15137 9430 785
4429 16746 672
24644 13798 562
6899 15620 427
7785 16057 900
5597 1992 857
15366 12939 29
9145 18560 116
29125 6527 706
25676 14125 889
560 8742 267
29038 26040 151
13183 23010 661
3212 11071 594
3740 22501 722
28325 18387 95
26673 14890 783
5329 23900 814
15049 2797 244
13272 5247 262
12258 19805 47
15720 14876 250
18345 9279 649
24665 5160 542
23630 11641 571
282 17406 596
21472 27613 795
16717 21535 936
28669 6325 77
386 29280 172
9324 10845 2
26994 19158 708
8413 9498 865
21441 10569 895
13443 26628 393
29469 14236 232
9717 18335 582
19566 8048 578
4055 15674 809
25974 27043 108
10683 11252 835
4423 21499 509
17694 25137 196
23545 8641 557
25301 20838 843
21826 21898 357
15969 27203 965
16083 4642 376
25898 17116 780
12830 12231 166
27241 11551 742
23905 25790 826
11637 7642 941
12151 5514 641
21286 9821 274
9477 10784 54
10988 5346 990
1369 13669 731
26797 7751 492
18984 12035 726
18728 27002 812
23050 14554 934
10983 27811 511
28730 27661 861
1336 14981 461
3036 26359 108
23757 4692 720
11686 18842 229
10208 24957 864
19515 4866 576
12886 13073 353
13769 12562 685
9819 4816 641
26012 24485 336
2474 16202 944
21331 19003 741
5789 14469 996
11555 13064 528
25604 5824 95
19099 3363 500
3099 21694 112
347 7185 528
21539 611 772
20558 199 418
20224 3573 254
8605 27460 794
19268 26431 844
6277 8549 394
1570 5539 986
16869 15973 620
15037 7791 532
19437 2520 202
1505 26601 657
7514 21600 629
16992 4369 664
10224 25731 838
4831 22336 83
16350 26802 197
10013 13462 535
29765 6222 793
15961 11063 276
20236 335 997
5387 17657 119
11115 14291 366
25925 23299 989
1918 20616 738
17318 10011 669
18933 20851 415
16924 22570 944
5616 28974 292
10954 3136 680
8260 724 651
11939 27562 652
1110 17505 636
12958 19375 319
25390 17892 973
24813 23917 605
6208 14876 357
2332 7666 463
19106 26455 67
15248 2840 168
17268 1711 561
2271 10056 913
20376 105 484
13138 1417 141
29227 29092 863
2694 14454 60
4410 2828 653
19462 11905 502
21954 1621 748
7797 13863 583
18852 26796 190
13952 17397 447
3951 7833 529
3946 9526 162
10183 26207 408
11352 6612 767
16183 21818 243
28182 29715 981
21445 29423 642
16599 17782 918
29395 4901 680
746 9168 656
26986 25347 981
13125 28089 367
16634 16713 384
3044 14238 349
7260 16890 316
20647 5552 944
20983 2641 826
28196 19400 139
6208 29715 80
3712 1185 703
19626 20470 314
16363 7790 389
7869 5901 347
10071 28021 200
26211 7445 559
7046 1726 435
3898 27713 363
2025 24704 44
2614 8291 737
24009 1632 518
10234 10341 34
24619 8966 188
3289 28240 706
27057 6466 905
12931 23708 339
23604 13085 118
4958 25994 540
28670 7985 239
18658 2978 375
23124 21703 23
25279 14801 732
21783 21869 24
28127 23166 914
20993 2255 178
28049 26472 134
7937 29003 512
14876 29374 391
13439 12408 168
27112 21143 242
26133 10091 641
11648 16448 179
8197 13316 16
29916 12663 261
13349 4034 391
16345 11170 152
18059 17245 641
8269 28186 642
11699 28166 588
12249 24494 992
11152 22843 62
6416 29333 138
28112 29815 518
26416 21333 598
26037 5922 481
26749 10106 610
16085 27156 302
16238 24359 655
28529 24370 515
27191 20249 13
6788 23009 715
20444 24986 150
13626 28768 306
8710 19607 569
13200 18323 382
2671 9140 841
22279 29216 796
3150 18445 638
18906 14392 206
29969 13895 726
27061 28919 812
21987 7926 724
26766 11507 639
28569 18378 146
28972 8605 555
3944 29328 788
14529 21545 567
10141 27193 147
10881 4517 216
16113 24483 658
25520 24215 153
29470 18659 836
21565 18907 395
14307 2036 17
9481 22901 670
15848 12712 969
17836 7197 414
26851 29897 328
21589 11697 672
15404 11632 588
14283 25170 381
4619 17656 972
23699 9933 432
8163 12160 391
11821 8163 688
481 189 854
2521 27708 395
12451 11927 427
6547 19122 494
25836 7017 110
1440 8648 745
2762 29962 505
29725 20799 284
20204 10147 400
5867 20706 871
249 21649 198
10120 4941 255
5660 27726 134
7638 7906 13
25091 1162 164
945 13938 14
19201 21966 926
15008 18308 593
26187 9424 159
15429 26941 676
27478 13927 438
23965 28759 581
7608 22005 125
2384 8808 484
26500 4380 333
22975 15304 167
11154 25021 874
20750 482 701
19087 5298 659
2952 20797 96
19510 11349 642
9045 2798 496
17502 28351 332
20354 14148 96
28972 27959 304
6180 19747 32
19748 27064 928
28035 807 960
8178 24181 31
5352 23214 938
29246 1813 479
3287 22468 903
13391 2280 55
4214 1293 916
19414 29654 540
23139 26930 809
4182 20629 691
5189 8558 67
3287 3600 311
10885 26424 972
10014 9098 960
13033 15503 560
22126 14225 855
7851 16374 237
19818 20107 928
3452 18784 595
22706 25796 336
23084 4511 771
11953 25544 752
21244 5570 18
2606 11775 241
20635 20874 626
1554 8521 799
24047 8745 931
26189 19685 753
13707 9434 347
3654 5649 608
6736 5410 961
16771 27847 628
25315 20822 826
18958 12996 193
11528 3426 228
14314 26784 712
13515 14393 369
29472 57 709
19603 18744 524
1901 7802 101
20809 4401 251
8970 2705 335
6033 29236 46
10743 11205 756
29238 21759 954
9093 7761 744
6735 16725 728
29837 18837 422
5771 19837 909
27913 4796 827
7982 22855 290
23514 3769 361
10575 18995 68
20991 5838 199
20240 27519 61
8239 3068 583
10247 5512 926
19492 14462 645
27394 7804 369
24408 9796 719
1807 9468 310
1732 23339 210
1157 18372 321
18810 19239 976
8200 25229 609
18 13897 999
20550 10158 786
16353 18372 699
27682 19878 35
15951 13424 120
1542 29447 853
7199 17635 913
3403 26294 83
18955 14110 521
25739 5300 32
11695 22069 981
7226 19352 500
27206 14867 519
10186 16999 883
25942 29678 218
15821 20049 781
12305 11914 926
20915 28217 289
24484 2382 512
1275 4010 707
29331 12180 391
3531 10178 422
10452 5877 939
5797 3612 348
12257 22823 85
1484 8690 825
27809 2182 373
13192 24748 280
15611 456 720
9267 19957 482
9078 9779 366
29706 25907 948
13397 22010 345
8519 15010 885
23323 16171 281
10293 26650 967
22412 5196 751
7870 15365 7
18577 13763 464
2783 10139 497
17458 14673 329
23103 17399 208
268 21265 786
16522 25038 936
24992 16481 261
23175 24814 522
7997 19878 252
6334 16229 20
9283 9417 377
19987 5978 186
4256 14372 206
16936 1842 934
25956 29070 80
25022 1299 644
26425 20700 800
23027 25806 925
10269 12816 839
6009 14439 723
20863 3305 636
7927 16145 617
2220 2324 16
3246 7100 529
19720 4939 421
11859 13598 771
2227 14263 15
7256 24960 204
15979 10355 145
16144 15643 828
18854 11441 35
12209 9551 811
11191 3885 171
6248 12223 901
4756 9676 959
119 1822 471
27400 5952 284
15623 1128 655
20755 1656 682
25107 7230 861
7850 28731 227
18167 20720 12
13643 3994 523
26670 2663 442
22979 14679 634
26303 676 830
28127 14876 913
7726 25561 368
25185 9730 275
10932 11054 207
24490 8079 819
26487 1591 361
6451 20353 507
8129 15122 744
11140 5083 411
28124 16171 881
5583 5590 158
7618 740 918
6932 7223 840
14533 27068 297
20645 16099 755
15141 23715 882
3783 23428 676
13701 4125 344
20574 7083 377
8735 5340 687
5632 19118 731
226 21526 821
24136 7060 826
6293 9060 649
23823 8377 533
19624 20036 211
14610 17802 239
19687 24464 357
15177 18826 294
12116 3068 4
29269 18281 532
14885 27824 307
27796 7839 116
17503 28255 417
9197 5054 942
16045 21203 659
23001 25723 752
23610 21721 976
1048 13089 66
29382 21751 455
28748 23943 25
11698 15643 672
25991 23988 287
6937 16514 445
26088 24442 77
22318 261 889
2599 20307 423
21103 7726 689
18441 21023 114
11764 24951 551
1112 7790 890
9570 28074 928
24040 18144 548
18048 20068 665
99 28214 916
10167 16425 743
20498 343 768
23983 29468 836
10156 17254 80
22929 18355 797
29844 24703 736
12486 12317 614
4863 8389 485
1049 29715 110
514 22982 343
12266 23430 480
26849 18721 304
2223 19629 730
19108 25493 488
13640 28931 147
15683 7754 634
22640 14861 373
29672 659 946
15290 20610 598
26010 26639 683
5119 13599 160
263 24810 335
26992 8946 582
18972 16255 470
19647 9324 176
7920 26996 525
18566 9494 24
828 15299 911
10152 29600 446
24000 22499 204
8058 26519 819
14786 11985 299
26262 6405 359
3754 13028 841
2199 26369 562
4850 13320 239
20225 26682 901
4594 19535 18
16482 18487 728
25203 5304 620
6651 20459 117
17560 4263 291
3728 21799 964
12726 9119 25
23461 18316 82
6496 13863 761
24740 13663 160
17383 6519 145
20855 18350 186
28932 24146 997
17892 9183 612
22283 13147 911
25587 24939 15
28403 29025 107
28213 28436 920
25408 16509 295
19701 22589 105
12716 20540 52
6814 2466 754
21533 23822 335
26794 26840 979
25128 18659 377
2016 7978 973
8008 25830 262
154 12213 987
23584 20690 713
22320 29550 235
4196 13659 131
23550 24749 845
26155 9850 428
4950 26446 211
26682 3949 73
26520 28657 202
21417 9865 856
11388 8046 302
19485 23600 234
10536 11136 61
26642 8001 660
7772 1721 407
2286 13994 314
1603 29604 718
2678 9270 972
10393 21978 690
19694 17205 237
19 1009 483
13536 16804 940
15279 15005 551
18716 9267 75
26151 26250 68
11751 23382 648
3698 19475 150
2338 24987 986
23478 11070 245
10184 1757 332
23713 18300 524
24868 20134 709
11612 9703 945
28363 7907 543
20198 29708 495
29703 19519 565
4341 11575 325
16201 23719 837
2872 1064 263
13213 7374 597
24935 28246 907
10694 8942 206
15254 9875 718
17328 11548 218
25631 24004 993
25401 3651 161
5599 22521 689
24393 10007 162
5163 20351 553
28451 20112 469
2908 21656 599
19515 1499 316
27524 22721 714
4313 25472 337
16540 27603 529
27327 16149 601
18769 19009 487
25008 26100 929
22772 21918 715
13489 27634 849
12682 9863 950
28189 28180 220
16284 13503 443
21755 17735 785
19337 9541 923
28016 16334 533
9616 24567 703
22558 28040 347
15983 7118 718
29023 10798 543
4944 27167 795
27968 17192 951
5227 1508 306
29958 14519 476
27201 11962 691
4276 8694 425
18655 26433 192
18062 9990 823
26453 22304 214
8422 22665 491
28942 18801 180
9149 28988 521
9225 5064 364
11747 15938 268
29973 22159 77
12887 783 849
12142 6327 321
12882 22647 905
24145 21116 387
20712 1713 551
292 9186 442
3141 25681 139
10040 28500 708
18581 4337 779
19371 24548 871
23488 8860 249
22106 19758 672
29621 3150 849
10730 45 778
21020 27359 375
12127 8168 150
6313 17899 424
14860 20557 824
735 4283 743
25312 27126 606
21310 2560 75
4569 25787 261
16030 28757 1000
12374 7193 880
6437 13240 96
14553 11416 597
29708 23075 716
19862 22667 381
5784 11278 431
25469 4042 264
19510 23072 142
21469 16876 157
13181 13176 917
28772 7373 29
14851 24370 99
393 18220 856
23982 1335 674
23542 25619 114
7362 16981 928
2097 8969 889
3075 6815 167
17416 23259 899
1851 28915 101
25316 13144 8
23848 4280 932
16491 14535 433
27641 19134 313
310 3375 663
10752 16745 713
6466 16794 309
2866 2849 590
25041 10951 311
23996 27628 612
13980 12077 190
8023 14233 550
18570 5654 267
1784 19518 546
12833 27383 326
13100 28626 493
23331 22076 309
12167 16103 473
21487 9116 908
23406 8026 609
2926 19150 984
17379 9417 869
26958 19127 166
6079 29016 376
5747 8892 583
1176 18417 889
1471 28250 540
26948 29046 289
27258 11169 308
479 18031 129
18676 5682 717
24952 21187 958
11222 12275 882
20198 2890 654
23573 29984 332
14916 16270 447
16766 9800 279
5031 2710 66
29093 11126 547
6883 19218 723
25240 13605 525
22476 19996 500
9514 18135 563
16252 9456 539
26427 6406 544
7470 10821 862
5842 15479 67
24759 17645 327
15133 10274 413
21216 7230 189
21623 859 855
14978 9350 109
1274 22657 344
19138 3506 617
2218 22767 651
9543 13783 167
248 25830 86
12110 8945 598
20421 4548 16
7217 26118 685
1844 547 229
3376 20805 761
2944 15797 389
352 530 674
12256 19570 544
28132 1257 695
25685 10256 2
26606 26223 531
24795 25096 240
15031 6617 187
25927 5256 777
15149 3806 846
28104 23351 951
15351 13900 822
17168 18526 191
25574 9916 431
4253 29965 815
5782 17513 316
16053 8004 354
8798 11603 265
6336 11091 739
11650 21046 860
25387 27286 994
17726 107 939
16582 28092 164
29519 13676 961
16940 14346 508
14372 25171 288
18172 1040 486
5708 11180 399
18792 22189 397
22301 16775 508
20256 6930 900
25548 8059 47
8293 6810 460
16785 9041 492
23944 14205 609
9189 10665 703
16761 24947 692
24191 25852 941
26012 19320 232
19386 11824 435
21484 1362 648
20501 9518 279
9091 25612 591
20252 13964 697
29709 1320 672
2913 6868 851
13892 8620 936
4528 4435 836
22957 7362 363
15815 16472 899
820 202 704
10481 5461 734
5283 19147 237
23234 14341 858
278 7628 891
13009 15064 52
24136 15692 707
24391 2031 796
5465 20792 736
23942 18800 397
9263 16038 796
22405 7326 846
11336 22310 248
3188 28031 91
13037 19127 42
13249 26104 121
5812 25648 989
26865 27306 525
17134 5208 905
15861 15037 819
17954 16453 929
19660 8150 292
25446 7812 912
17716 3979 655
16589 19851 813
27206 19241 748
393 7725 166
18694 14762 814
19182 20329 443
17933 27268 469
27976 12125 983
24049 16595 134
1208 19178 789
21564 2905 563
23933 26988 983
14144 26764 322
660 11125 655
25814 27786 699
4421 25016 853
12967 4515 826
25409 4965 82
26509 4769 200
8361 7651 116
23158 28855 948
25368 27947 187
6386 29152 348
3258 16483 190
15273 28584 891
29589 21571 732
5697 5472 818
23478 24086 242
22568 7809 399
5681 16039 682
25146 19228 820
15863 28958 264
26451 16454 613
12347 20232 583
18717 6110 32
19895 20678 322
29605 26572 569
1233 11996 624
8131 10301 81
1570 28143 669
27989 16973 417
19480 902 537
237 9941 371
23372 27206 424
9945 11284 412
5833 2235 567
19227 18153 526
16800 1140 429
28111 29251 826
23330 28757 910
14679 16920 151
11218 21659 286
1353 27692 757
6285 28776 613
13524 8607 395
15397 29341 601
13992 27028 905
28346 273 415
29051 8944 206
24389 19979 486
28282 15399 144
21699 12123 827
25073 3632 508
23116 10674 505
1726 13853 874
18804 8327 166
6271 28935 181
25762 10075 812
20290 28528 755
13663 18071 447
28802 13666 958
23027 22086 591
24537 13236 276
3742 4769 91
13360 25190 381
23059 28408 778
20553 26114 438
5786 21223 651
26770 9417 45
10982 23803 857
28003 19590 557
20255 3723 667
5618 25626 332
23441 25088 721
3144 20849 914
20402 3390 564
24378 22050 465
19899 25809 611
6789 15196 579
27229 9417 980
27582 16711 281
14651 4797 518
6564 26032 447
9760 28422 148
4047 23285 659
26112 27427 610
24987 15708 468
29824 25660 426
17282 14910 491
18114 1970 331
22954 27631 708
16220 10444 328
23018 4966 741
4211 20021 18
25554 7270 784
29460 23600 197
5561 14332 323
2671 18645 282
23274 19246 107
11349 15984 219
19303 21787 888
7880 20647 897
398 22948 786
6263 13858 401
21974 18231 557
723 18028 398
27338 25180 450
22547 7800 369
26116 1776 835
18179 16811 962
25346 8798 642
25231 29662 972
2716 3275 675
22689 5631 938
28523 29081 627
2557 16724 877
23467 17164 467
10581 3578 732
15578 25611 206
28825 886 595
5955 16222 530
253 8672 599
5609 12099 692
19404 22842 667
10337 9445 653
6016 25038 400
27159 3733 788
23200 9749 430
3040 21310 427
14614 16915 435
16328 9923 352
8192 10724 959
3670 19000 806
15653 17277 22
13732 12644 897
23481 23838 455
15270 6547 147
29255 27767 780
17531 9193 93
4777 24284 500
13998 7430 212
22847 25417 41
22555 11100 597
6410 5887 767
13129 10849 451
9290 10398 673
22 3289 396
21333 24937 766
3680 5784 242
14672 2343 590
20072 1608 741
4462 4654 202
19438 18324 137
23078 11496 130
13243 6980 668
14688 12931 849
24148 67 576
952 3685 825
26984 1154 984
2133 14900 198
15811 29714 661
10776 24452 59
15130 7762 735
17885 28880 847
10084 22261 904
5515 7321 808
9617 8470 282
19726 9447 79
17799 21656 158
7291 22972 660
23040 22042 499
7158 13503 182
29637 14406 883
17600 2919 870
7493 22084 797
14738 2935 270
29936 20803 714
3509 16527 140
26075 8488 466
15183 5088 943
28604 7505 882
1148 28393 385
28505 1156 739
28197 5772 373
6403 1995 585
13728 24281 689
26689 1267 987
27176 7274 400
13673 12951 740
8946 4830 20
4354 21177 844
10960 3351 741
19756 8462 499
6181 6590 162
7148 2035 511
12931 8285 3
14686 26690 943
28917 29369 774
19466 22937 414
29604 25447 48
24837 27020 149
10628 26453 318
15482 24689 253
24651 11605 85
20496 5712 23
6965 14018 418
23653 22637 600
19600 14245 55
19076 6135 305
11633 2791 10
658 2333 406
10526 23514 824
2341 14363 705
29175 25809 421
14463 10002 711
26162 23494 302
21532 10308 954
24836 22197 71
12138 13304 465
780 26904 137
19699 2924 499
1058 5971 354
8312 21347 921
25057 29531 131
28455 25560 380
23140 25077 617
15452 4380 633
27020 21849 67
5591 29754 496
12335 19258 777
5188 26569 308
14844 1463 738
8457 20336 418
8352 3815 521
10178 668 634
17475 12980 98
5531 5084 161
11279 2393 220
128 16736 216
7534 12226 228
11625 7556 29
6922 18381 516
5545 14695 247
26338 14792 737
20343 21479 615
12103 3287 177
5114 14260 177
1020 29432 83
9073 5720 524
1043 3473 858
17544 29276 311
29347 29116 21
6980 8870 323
22843 26299 907
24629 12601 542
20051 23955 40
23993 8886 479
15344 25121 16
19775 20924 979
5848 20782 591
14706 10271 30
11783 10495 616
2301 25577 293
22126 20478 125
6047 3652 995
21033 15624 902
17207 14596 850
1201 20027 558
8280 23053 945
7342 2097 292
20388 18288 397
27544 16978 259
9616 17042 201
1806 7907 913
25594 19747 486
10495 14523 226
4716 15812 638
22374 10725 237
27545 17948 274
23606 1337 806
5763 12793 311
17280 2671 354
26935 28922 732
17537 22212 530
1856 13995 37
24294 16703 558
26579 26866 348
3310 24403 204
28040 10176 13
14299 7412 742
11600 10139 823
4638 24493 880
5401 8619 896
4219 29898 732
7519 8852 240
9279 10129 17
16128 19396 649
28407 8473 276
25482 20625 502
3222 22091 16
22814 5414 911
10044 4048 756
20487 15404 669
18477 5834 918
23670 4428 404
10381 4761 946
8501 17346 473
16759 20837 820
26509 27676 916
9514 12513 131
12219 23370 376
17048 29803 461
13670 12831 602
5357 1709 960
18718 16162 24
5159 5528 290
13787 16008 120
28070 23770 667
6479 20229 58
29958 24962 727
29813 15977 398
11432 29589 435
14528 1431 437
24158 18070 916
16068 27472 29
6259 23257 205
10791 24613 333
18970 27574 287
4621 17930 652
6275 1156 788
27973 23314 653
29627 14667 775
15269 2207 946
17139 13706 906
28271 18657 874
11833 27732 108
8102 29400 653
26403 27673 919
1063 21363 562
16323 8302 493
28004 21417 947
21235 29150 256
22125 7377 710
5809 249 106
3830 14261 423
23744 3297 564
17374 11334 252
28867 10703 212
18940 7314 102
22447 20519 700
21019 24144 168
21438 13774 777
1706 28234 786
10605 9424 529
29414 17417 947
5565 18872 668
3667 28117 254
23754 18558 522
24049 22285 300
18986 21490 941
27364 627 780
26793 25584 69
1280 15554 63
448 27360 517
16921 9317 292
18831 9978 374
28514 12180 467
25057 5025 29
20008 7477 5
13180 27499 391
18619 20763 729
26800 12239 439
13970 24969 113
847 17577 423
28730 8450 41
18358 10346 396
27841 14257 764
23401 26862 541
25190 3435 567
9323 25396 352
14427 16305 469
17134 3580 294
7766 14886 718
12161 12038 355
6390 24319 136
19437 3073 478
12712 2183 947
24379 26410 785
8571 11163 747
25007 9167 811
17055 24470 950
4946 23580 748
3876 21093 544
910 1140 80
21888 18886 117
29266 20162 209
24311 11174 307
18079 17277 273
11825 6891 609
3369 23442 248
7772 16046 252
20559 4902 946
17125 13960 412
26355 1 528
4739 17731 151
22501 11297 613
27731 2569 683
25385 398 283
19997 25109 122
12856 18750 364
10856 25449 889
21438 7327 517
29270 4102 222
10081 9058 195
13468 22321 597
14182 5242 59
10958 21371 306
6303 18078 226
11592 29517 725
27179 20801 666
13256 13568 572
4753 20749 610
15776 6168 634
174 20519 381
9794 5513 657
29533 2691 733
22311 27015 429
4324 14620 731
14716 15215 8
5906 6574 819
21174 8256 843
6470 677 631
3310 5244 154
20617 19776 194
7310 15756 213
6843 23343 154
10592 4394 684
24315 10974 149
8616 4680 259
17683 15552 855
22620 17970 264
24017 13832 992
12803 27909 531
13902 12499 965
15380 25288 89
23231 13231 859
12115 24728 468
11160 21402 322
27667 10353 726
24827 20486 814
12163 20433 959
16170 7588 390
1786 3854 145
26253 12262 92
21512 8962 480
21942 18726 806
25591 1026 639
10556 26472 267
20771 28078 10
14976 10690 714
13807 23804 226
29814 21748 635
6916 3270 489
7731 123 177
9224 11582 510
10630 25261 764
3474 28744 428
2899 8184 620
12789 9952 458
14677 16973 293
12589 13590 706
1418 6094 496
6118 23569 160
23042 25083 874
5618 28253 195
3182 24359 399
20648 20788 310
9971 6121 846
13378 29782 307
23605 686 409
21962 1618 261
13213 8309 233
29515 8449 795
4323 28346 487
18597 24724 769
2586 20348 76
26031 19624 465
14161 10844 361
16026 486 210
14576 11485 411
21091 21526 329
1736 7933 472
15844 18269 451
17071 2615 985
29375 5774 411
16432 9389 414
22939 8560 786
18097 11269 547
29484 24121 47
21066 13152 445
3488 9041 31
812 19885 949
19532 6470 735
15753 29288 958
16725 4614 280
21997 2883 554
5678 16671 588
2433 27307 507
22411 14246 316
29244 17716 123
991 29206 403
23400 26704 415
24437 24690 47
2045 8056 37
7086 27123 536
9655 7876 4
21357 17568 565
777 20104 551
28545 13847 340
8510 3259 444
25325 18405 594
27728 37 452
14467 28521 20
14624 23374 300
26410 18316 754
5485 9354 543
29461 7429 322
26984 14593 6
27775 22885 20
29416 24373 756
24262 171 688
20567 14937 903
1220 18141 620
27484 14240 663
18810 20627 674
3846 10069 57
7734 2185 369
23834 6841 295
5493 28467 803
11675 2997 425
2843 28111 124
3093 18269 298
7054 20062 51
25479 12589 803
19940 23341 723
10272 18372 31
20853 14710 183
7119 14701 900
9225 1159 309
7849 14363 384
29534 10558 169
25304 15180 289
28160 2805 751
2357 5388 399
18272 20211 642
14958 13999 406
21359 14708 862
19581 19313 618
27790 18282 405
22672 8843 682
2243 2947 685
20763 28573 330
22154 10427 430
139 7475 177
9148 11831 329
7901 10123 384
17016 15239 323
24700 938 441
28978 28672 603
26376 19318 385
28974 14680 866
23777 2145 737
19448 26700 871
5432 24278 156
21027 14070 931
6015 17003 567
20533 9349 899
2813 27024 817
21533 4550 127
9449 27970 585
27474 3082 665
12493 29855 845
22746 13376 329
12142 19604 495
22571 14472 144
11899 22531 355
773 3947 452
6461 16697 287
5610 11136 88
26618 15643 933
15273 28546 997
29903 21052 768
3661 26925 525
28234 2438 995
27778 7663 50
28003 9490 667
27525 21146 846
25069 25165 707
941 4208 99
12383 5773 126
15420 18962 966
28003 3600 673
6764 22428 960
12136 26097 779
28343 29287 810
6394 14164 353
1547 4935 964
15612 23535 66
942 27973 685
4495 23056 251
14431 6209 224
24783 17258 986
28558 5605 881
25250 5672 614
18944 6926 739
11071 27622 189
18822 17826 974
26053 18659 145
17499 29063 96
22429 4364 813
3629 2112 864
28274 7053 614
29144 243 673
24944 15015 889
19173 10943 788
1676 9221 503
11088 10267 715
29175 25247 757
452 86 978
19427 10618 397
8718 16552 961
24835 25364 425
29533 7170 642
20501 29657 495
6391 19809 269
29520 16581 800
6660 1140 88
1017 28911 952
29489 5269 149
13770 13110 259
16564 19447 162
16349 26106 212
16745 16518 259
2371 5193 711
9770 14538 556
13804 5284 12
8492 1336 631
3572 6234 637
13645 9674 177
20282 5181 616
1937 3948 456
9974 23075 913
9969 27644 277
19646 26026 893
25089 3620 89
17812 8149 805
12727 12865 921
20516 6904 864
28921 5969 825
4954 15829 47
13847 16062 423
7041 5705 561
10530 12752 413
3083 7461 248
22389 24146 318
122 12873 746
18855 25317 834
28314 5384 798
19725 18561 432
25107 25754 426
17736 15299 30
9675 14047 940
9719 27603 450
28349 13071 373
14174 5799 942
25738 21879 280
992 19949 947
3383 24971 999
14863 13510 782
8160 18067 934
23680 9621 193
6764 8134 177
8681 13131 804
6336 1410 123
2383 10639 465
3809 14390 715
28179 29566 677
3237 3296 109
3028 6094 877
16776 23673 643
10287 15933 636
14166 27681 585
21103 15882 691
7004 10961 781
16049 21587 272
26075 13882 876
22792 559 419
24982 26892 43
15585 19479 158
29880 16920 454
26367 21389 457
22808 21623 118
8320 25341 231
26571 6727 964
6520 13225 869
9585 25306 662
24781 20812 916
22307 21502 270
18781 18886 431
5647 28142 174
20489 12463 814
22926 24601 240
8266 234 198
28307 10781 956
17970 435 106
16585 22855 36
23979 21068 754
15567 16951 360
25195 24211 486
23309 15673 919
26622 5280 648
19711 3508 130
14899 4961 405
7940 23065 99
28802 4702 487
20425 15366 209
29338 6699 129
28531 23556 886
29541 29839 641
7033 20010 561
21799 12288 674
12926 18462 433
25193 24806 364
4681 13892 781
15867 16565 921
14590 25117 19
3298 2352 242
6625 25397 798
3189 22349 210
1998 21254 399
8029 21253 197
23042 22122 82
52 1843 826
7344 20615 315
13046 10278 871
9405 8427 408
5320 5711 260
26093 2653 386
20060 27298 289
17078 17283 51
11507 9874 803
14139 14046 493
23916 4370 658
23758 29746 709
29772 4877 779
5597 893 69
12032 2495 331
9179 23934 710
1725 15208 424
21748 20824 684
26304 5424 112
22593 6092 501
15768 20890 740
8847 14607 845
11513 14553 545
15836 29836 111
8233 23761 43
5724 3857 929
6694 15829 130
12092 39 989
24075 3517 626
17020 2033 604
24965 4936 96
10911 29726 370
29206 12367 295
14117 3231 983
24560 1308 94
1473 15107 478
4680 5910 322
25196 13152 895
29501 1169 334
5962 13611 653
10742 19355 996
3082 25032 686
22473 9117 603
25926 28640 484
9358 15616 335
10330 12357 192
29180 16656 630
25907 12395 252
13632 18140 142
16133 25580 48
12257 16237 536
19374 17952 87
13026 1302 878
5925 24574 20
13906 13637 904
497 10937 371
1465 26821 622
26598 26962 278
19540 9783 133
6184 16894 5
22991 15383 51
534 26245 805
8077 4638 863
29277 22865 863
18550 16379 711
9739 5147 204
6556 10931 553
22645 1781 901
7462 13118 810
26494 11618 729
28975 10240 809
8316 8669 901
7160 5152 746
19425 25138 417
18596 12822 683
15284 7343 582
586 14325 343
29837 24977 842
20309 15630 378
21711 16928 746
10899 14316 42
15775 16098 817
14966 28761 512
360 12760 798
15189 9345 71
16094 8488 733
18134 26642 73
4572 9534 537
22651 656 224
16317 26430 555
3061 2464 515
20086 4685 635
8221 29273 837
18673 14605 371
26431 1021 281
8438 29737 257
22415 18176 873
23203 6552 466
17770 1315 368
21121 3581 670
3153 12527 638
29626 17246 578
1261 12611 217
13873 11184 708
25277 28285 275
17004 18748 904
7910 3807 529
21850 22136 691
25708 26027 5
7631 4645 380
1764 16955 989
28317 12938 209
14283 6586 964
8540 1952 430
26220 24443 218
7868 5049 907
4430 7487 464
29600 28256 975
3101 22229 195
21481 5574 458
4648 13856 268
27536 20275 310
22563 15747 580
15503 28020 394
17605 429 801
28469 7667 652
13024 12324 327
18665 28174 655
19110 13787 429
18557 9399 626
6528 4519 933
28246 11367 569
2369 4100 182
7661 23436 505
21278 28399 184
5633 11909 625
9836 17965 122
8809 28313 266
28627 12763 350
14100 20973 220
20405 29282 449
10374 3696 847
21598 21903 696
19217 22562 832
17621 16254 61
5324 25618 393
14774 6522 260
20322 7572 941
3227 18744 128
2353 22476 724
25633 10109 376
162 8361 622
26899 22807 639
22631 10861 160
24089 28940 136
14675 15376 887
21055 8458 382
27511 471 914
20285 17618 561
16082 22486 337
21233 22526 268
19417 20635 138
9170 8492 143
13787 19345 637
21662 4536 976
18364 7739 326
1476 15728 684
8439 24604 613
4283 22856 364
25577 6604 919
10258 10517 18
9823 24567 137
27700 2523 729
14206 25047 33
8350 17328 619
4809 23116 680
16466 20630 28
11445 5688 577
28033 13915 287
20985 25413 453
16230 1596 831
5665 19602 403
25282 23939 766
14627 9449 460
11309 18448 379
8104 29195 322
7537 8496 190
1297 21697 445
4462 8241 484
27517 1821 171
17532 7339 127
11106 15524 689
16188 10728 357
27847 3768 987
6037 16479 93
15851 19466 706
6893 27562 254
26173 13281 72
16784 28953 118
15275 23735 504
27828 16823 163
27749 4954 646
5613 1928 981
846 5340 433
1081 22703 63
29623 4604 180
25029 5493 998
9242 24780 992
17414 1386 337
28213 15862 150
13830 14473 914
19670 29168 554
10750 27933 734
29639 22054 116
14353 5699 942
17597 81 741
4135 14397 231
26381 3651 378
22321 26741 23
23487 1580 186
15050 1394 940
20129 11242 889
18607 22890 361
22060 20224 268
27260 26831 744
15401 26508 62
6601 6516 688
20444 21460 865
2891 9492 407
19688 12439 993
23608 23056 702
2759 22493 537
406 21295 686
19865 8893 761
916 3432 582
8038 23210 125
28609 2998 899
22751 1052 975
3792 21471 192
17697 12944 649
20718 8341 76
26020 18336 416
150 12570 495
15697 29959 77
20613 27007 228
22408 25625 487
29106 3815 527
495 28197 408
21153 18704 323
2963 26137 442
11208 22682 651
24497 10651 22
25337 15108 973
23039 14600 979
23034 19260 646
28080 18908 277
28723 19534 486
26699 27559 545
2853 14021 728
28615 12147 994
5862 1994 524
27989 25790 16
17457 23625 771
24989 27417 897
7084 23598 718
1791 4736 711
20037 20809 743
23041 26566 484
20644 11089 539
26557 24857 553
19557 5599 915
20960 29492 939
1542 25625 342
748 3516 207
7939 12776 116
7347 5947 413
19506 15307 97
1711 17873 284
16817 7102 339
16192 4103 582
3224 447 560
25127 26635 760
5856 20712 826
690 7895 122
12177 18618 807
11058 10649 104
22775 5454 23
20833 25068 321
25851 12298 254
23201 256 222
7719 24119 357
24261 28852 228
26328 6624 84
28757 29145 53
3150 4661 551
22145 25514 335
24776 29267 282
4277 18614 545
20106 21646 582
8506 25565 807
2317 16593 521
18633 364 804
103 6704 997
5412 21680 253
2187 17627 774
4217 18394 491
10239 11527 907
6816 21068 211
24814 6748 53
3939 18012 795
28703 433 8
5023 3435 487
9701 4396 621
24733 3215 878
2570 2860 804
11604 16990 910
17734 8414 522
28362 9058 842
7666 121 884
24419 11795 883
16122 16335 192
11098 12563 708
25011 3475 150
1159 22375 728
5307 16702 567
6243 13221 232
21199 1519 384
22719 1246 316
7638 29108 250
16752 29605 69
12898 7797 956
13862 27214 181
26452 15314 76
7210 22090 63
13115 5841 391
7937 2614 696
20550 25202 629
12257 17216 300
16900 4224 425
3676 19317 911
29291 18491 273
15443 25487 988
6495 1107 55
28546 11478 522
371 13153 570
24101 7752 938
18931 11057 808
18591 7994 601
23851 20629 199
22301 4018 752
6492 25317 741
14660 17330 385
1710 26965 597
14125 20470 450
28952 23749 189
29520 18857 677
22684 28172 309
21517 19138 362
23979 8438 199
29452 22665 175
17813 2778 806
13315 20248 764
7193 16386 993
11005 14956 719
10508 6185 293
11202 20227 346
17798 20390 704
19549 11229 475
9550 23570 402
18251 20644 499
15273 3622 505
11990 26026 208
25616 11060 92
13078 6402 47
5900 18212 352
29768 7142 960
3028 10903 175
11114 2839 454
28630 11441 335
8796 29855 204
16711 8131 774
29094 21180 610
29381 3462 226
9095 14982 123
26929 16182 468
26148 1983 730
5573 3851 288
6972 23282 820
23408 23104 647
7150 14753 769
14147 2367 812
19369 7622 657
369 16661 143
10309 28092 638
16662 28484 788
1862 23148 21
23338 25028 27
5209 305 653
29596 11860 826
5874 24372 207
11098 26536 437
3298 9488 782
21666 11606 482
19958 10421 55
8291 16361 7
11060 13701 604
28250 7743 659
12569 12590 16
19857 25353 821
18731 22590 233
29396 2108 617
3337 20519 446
23494 9256 645
12806 12157 640
3169 17297 90
2155 7847 266
22657 5053 189
6874 20367 427
26833 10549 536
12103 23947 853
12059 11880 772
20717 15652 158
11346 13289 159
10934 20579 377
5915 2095 300
1498 28096 300
11487 26128 175
11606 4632 246
27199 20215 990
2380 5633 968
17763 16650 603
5400 12014 915
29754 20163 854
14827 25561 214
18028 21291 659
22727 9761 731
9118 1466 208
12057 982 43
13315 11589 88
14298 14433 11
8496 3987 204
9523 24968 683
2982 28008 622
11043 20053 152
28912 18523 446
2850 18190 282
2603 15074 206
5216 27153 158
29465 14960 921
19357 8131 253
16555 6466 221
425 25005 567
28452 19857 108
13807 9571 289
8701 27931 63
2027 8425 664
16192 23085 861
16610 12054 724
29976 9819 24
23208 20013 579
8495 18678 358
4642 7771 187
15368 3130 933
22421 2192 32
3638 20788 86
24725 12173 156
6370 28585 846
15727 27562 5
25542 7924 585
7921 21343 661
14787 16572 638
12406 9887 440
28905 27960 794
20035 7974 44
594 13902 286
20408 12695 98
19851 18692 128
23619 27742 192
10615 20561 799
17589 2275 318
23343 6076 134
23982 17083 752
4631 36 670
10028 3940 474
2330 27164 240
15367 24578 299
2927 7677 165
19606 11273 414
2979 15900 187
4856 22590 183
25217 26089 408
6895 9931 691
25079 11930 4
24619 28422 958
22025 1031 366
4948 24024 94
12736 16430 644
26624 14168 334
6603 5618 817
13381 27519 900
28505 25960 186
15971 25727 736
20652 22535 126
9058 7294 672
122 19036 377
18244 12123 388
16117 15192 584
20058 23124 387
20506 11867 179
2763 12789 242
11023 3595 442
18160 7209 371
22089 7400 311
8139 20647 300
29323 716 645
8012 4432 647
26703 21984 447
4141 8650 842
5182 10459 761
26921 29787 466
24554 28812 253
1323 7329 782
24863 19458 367
26919 24486 815
16729 24577 423
6345 2748 378
23950 26757 574
1303 15250 580
25423 13814 48
25525 1507 774
13781 27744 388
21268 28647 1
16544 29706 753
5315 8175 534
1962 7536 560
9580 17979 18
6755 19913 48
21692 25919 387
15558 12885 462
4164 2908 379
8605 3720 944
13733 19043 985
23780 3310 906
22526 2318 580
7726 27953 313
11435 22998 641
19784 6829 712
16928 6388 646
7336 28672 169
5832 23490 256
12359 27895 499
15422 8911 69
20784 6688 507
21143 23153 760
20809 22065 517
17033 7159 206
6706 26592 112
18855 22132 221
14548 10544 47
28088 22416 610
26028 3876 435
21229 16857 634
10128 4544 345
24544 29685 148
26788 18408 424
1748 17913 229
1391 21344 764
24102 15912 359
4450 960 448
3404 19408 545
16447 5053 830
29974 27632 923
18824 10418 230
19152 28840 723
23414 28644 470
17074 12002 690
15175 12605 246
2218 10424 279
2509 5278 640
20614 10369 590
27396 17222 775
27715 24980 91
9052 12838 147
19500 10446 342
19522 22688 782
7033 23218 884
13166 25158 369
27020 20534 609
9733 20169 957
22405 22380 784
2219 4350 463
25642 24551 178
16534 8727 180
8766 28991 372
9524 19937 439
16078 18701 436
730 5755 799
1924 25190 983
6173 19516 914
21612 6634 823
21124 8641 759
22041 6276 430
23130 15299 641
10250 21441 195
29180 23996 6
24469 20588 441
21689 8643 373
27739 3911 477
25267 5786 293
2308 28877 390
5573 21569 933
21263 28207 624
28127 3685 328
16739 20976 885
13565 26377 593
3946 22099 46
17266 22304 685
29753 13663 292
21024 5638 245
398 18415 559
506 11240 240
8326 24241 44
11405 11562 320
28970 25918 449
17771 12858 739
25529 24367 811
5757 26646 461
15888 26548 289
3230 27653 172
6202 26369 171
17654 15049 609
5188 24412 105
3184 16814 783
8575 86 746
17606 17587 46
13000 29556 626
20846 23736 470
26331 16786 340
22104 14100 904
22943 20948 196
7225 2341 718
28811 10533 447
23433 25350 367
13039 15993 844
16753 8854 820
6496 18600 85
20730 24855 612
26736 8870 652
14465 29290 832
3853 25061 951
1925 7916 199
18634 28446 385
19727 13762 9
10242 20982 655
6253 12904 232
13110 10888 234
24966 16015 648
11375 26149 71
18241 2484 636
26861 25571 852
27821 13172 465
26646 27131 152
18316 13128 34
984 25381 614
8854 25731 24
21352 13014 726
12124 20286 239
25629 6033 137
22629 817 912
18781 5627 602
12517 19165 775
1734 17678 743
8629 5524 26
18873 18244 752
29865 6783 453
28404 19823 977
27412 12584 404
26301 7102 659
1651 8718 29
10262 10401 433
16703 3077 224
19101 19853 661
19402 395 488
6257 23147 671
28482 29919 934
3939 14193 795
8983 2064 704
28927 20098 746
19509 16255 220
6164 5700 639
28295 4743 996
10955 26262 293
17927 28479 829
4391 22084 432
8406 18950 725
18405 20191 325
8043 18039 136
3490 13143 968
25102 29214 842
12271 6173 976
3636 12884 388
2641 7674 861
9471 4216 514
15322 11204 888
20901 24912 104
11976 14209 442
14244 15643 673
8672 17768 703
27666 18281 695
1983 26632 486
28419 6982 628
27106 19699 909
6001 14504 867
24451 12655 821
15901 6443 640
25953 10477 256
7366 25834 849
20354 15344 318
11449 22310 359
18761 16139 76
24614 15002 79
659 22634 605
29396 26909 773
11659 5998 107
20003 18098 809
8599 17276 34
17450 13323 874
29855 27647 463
10398 1067 785
23319 14590 906
17265 23969 521
10241 24866 878
15076 9488 344
19309 15377 428
5863 7293 73
17126 28024 804
10739 24223 312
23429 16494 22
10169 19509 9
6346 16833 727
12882 29129 701
13810 29237 200
17310 7457 473
29935 4526 167
14092 20176 84
18348 4638 129
24177 311 686
4191 16675 309
18300 27131 817
27178 658 530
14892 8338 639
13626 16134 486
15666 21563 159
2546 9742 584
27179 20395 702
19831 26594 743
15173 25375 412
11370 16109 198
27352 22480 25
21948 7826 819
21505 20244 179
14625 16569 570
29585 16206 906
24472 8342 371
12129 7183 390
20369 5898 134
20137 18752 451
25492 6292 310
8988 1417 627
4876 24203 290
12793 3082 718
9380 7973 313
26369 8 894
27234 16383 344
21873 6208 820
3609 11163 8
5521 22566 504
20503 17450 416
17242 16656 396
5370 4182 949
6204 22262 295
14745 27227 486
4665 14889 174
12217 13641 880
13830 11818 174
15743 7464 328
5003 8325 24
5471 25032 977
22406 29976 806
3860 19805 308
3376 25857 306
24970 16664 362
19624 9721 604
15724 24726 290
14927 24352 133
3391 23565 240
23459 983 365
18541 16648 957
23140 28323 73
21200 11807 163
11191 19186 568
6724 24593 416
23613 17598 23
16061 4622 212
10643 23030 139
28236 16611 214
10316 23422 508
5949 14739 567
29238 22467 537
1679 26829 579
23514 28167 504
20624 20696 625
16128 26661 434
26858 22893 153
10738 12013 413
25046 6938 36
16143 23949 683
11538 22275 654
13571 11080 180
22929 28063 840
5189 24431 319
10342 8434 268
8246 22324 500
7515 23686 236
17223 10229 894
21816 19389 760
1134 3101 308
2096 24812 293
25207 8049 966
8395 2423 160
25134 29097 715
7215 5571 462
2888 26625 431
16030 21728 398
2129 17240 350
2528 1048 737
17437 15742 763
12923 25844 322
8926 21310 962
12941 26962 693
18047 15692 438
5563 12924 576
27683 11775 19
15358 9500 41
19869 2460 314
24692 21747 253
3606 14952 692
3459 19223 671
5867 16460 22
13416 5312 744
16234 28788 648
27500 13412 620
21183 2501 512
13905 15250 430
7490 11107 512
15152 2832 920
1701 23255 193
26978 21180 742
6641 8171 341
28018 11017 129
14392 5405 888
20547 27571 383
15655 10536 505
20040 8122 477
16250 19039 361
28635 18795 534
22964 10043 465
16144 15128 687
16347 5296 255
3071 1784 92
12614 20195 30
24361 13474 569
29104 25505 239
29073 24523 736
17197 9228 149
13003 25219 924
14166 24386 712
27565 17889 185
19472 22317 699
17486 7218 379
17556 9946 840
20126 6361 311
15924 13054 876
11592 18017 399
22740 26654 568
29150 21286 362
24351 4334 830
15385 12599 606
3886 3654 419
15571 3296 131
27066 17055 42
20820 6179 373
17934 26160 987
16801 16270 554
8279 12061 459
16090 21530 888
2001 1859 509
11695 18744 255
16911 15455 266
27067 16518 655
19869 26836 798
22667 9642 701
24045 24707 912
28475 2035 92
26433 5954 53
26025 14215 451
19634 21200 909
24552 27296 26
13591 12056 27
9493 29759 565
10151 16038 9
11122 26027 160
1267 16173 328
19253 29700 203
6939 9820 818
4524 27865 278
10665 21640 136
23704 29249 81
19782 2689 598
29922 26240 360
13766 5493 342
8331 15718 583
6611 28940 793
15015 1820 904
16395 23993 279
20735 23944 281
29283 23575 176
25559 5583 16
15014 20584 107
11601 27851 57
20075 16049 223
4212 3296 489
22308 14673 504
14118 7376 771
4009 19467 392
10438 9129 494
25149 2765 999
12562 2213 482
1417 28035 517
26000 8878 356
9917 8024 659
13407 29963 761
2405 5537 784
1172 17949 654
24132 29313 759
110 23521 333
24901 24927 160
28792 17636 619
25050 3994 23
21608 9204 49
22519 2287 543
10475 23932 115
18959 1561 273
18539 5951 657
14603 13976 179
20096 24754 627
13345 14791 709
26611 18492 84
791 26996 913
2142 2030 821
10442 23051 700
909 3495 36
19573 26487 8
21928 14120 596
9180 12857 877
16407 2553 911
21854 28166 909
2454 11939 718
21439 27387 46
15544 17452 651
17349 26144 155
12885 23545 714
350 19386 632
10598 10815 285
22629 12469 838
9635 3360 140
20867 21305 947
11229 18035 443
27647 11529 328
15487 15808 342
2877 26886 501
3084 29893 251
9515 7710 283
15168 10364 754
8052 8444 533
20534 17897 211
26082 22348 287
20449 27876 470
10319 24182 916
7943 2526 539
21156 6368 47
29180 940 438
1903 26170 143
6771 27210 584
7122 8309 799
8280 20287 104
28665 28545 886
583 25876 642
2941 29925 257
9619 10806 812
20730 22777 472
5499 14054 847
8805 27806 48
9362 13408 923
22508 9707 435
3361 12173 169
2917 14526 340
10232 22959 74
22700 12790 486
8662 16636 646
4858 20682 248
17908 15198 855
28760 22525 2
29470 21135 48
1481 12672 784
9122 5658 795
12522 3966 57
307 24080 700
2655 10357 175
17728 29651 152
24431 26473 237
6364 8852 366
19211 25408 999
4421 12687 108
18059 13483 532
2301 12609 229
20640 26808 275
6420 4397 470
1115 12113 194
287 9236 234
7507 21844 578
22561 2730 465
7837 6800 567
29587 28854 95
20592 23271 156
18833 21544 832
17260 14717 483
8387 9415 126
679 1314 810
5277 28552 785
12591 14189 816
6894 9718 351
22678 15898 585
23437 1208 589
2604 8103 351
15647 7454 318
20911 26896 903
4038 2226 862
26067 18501 325
15681 3610 412
28081 27395 169
2969 8396 649
3969 19502 167
1103 1389 501
1772 6584 924
5738 7047 246
8890 16268 115
3838 20459 563
21942 6640 851
23347 26914 406
25153 11718 857
1368 18694 409
7272 12636 673
28810 27097 309
24314 20782 699
27865 17229 946
11261 29520 407
17818 28172 312
28389 23842 584
17011 24892 314
10566 25399 423
8481 25703 9
2075 8866 151
2794 11585 565
27962 26894 506
5408 6148 768
17103 18786 603
28379 24527 391
29307 12110 80
27523 26910 292
16645 12064 825
19999 19568 236
16153 9184 102
18647 3277 730
9216 13758 362
15592 28135 865
5995 11735 485
13891 15717 677
29784 6706 613
15600 15874 10
16004 18735 912
10245 22677 111
13239 7937 396
6181 10237 101
27100 21876 925
24977 5317 79
15052 19381 546
25929 14611 87
3275 6000 232
13488 3780 492
22417 19361 779
18914 24343 414
3929 1493 405
2795 7127 657
13253 18059 21
17890 17692 127
4562 22862 381
6418 2179 409
3239 3761 974
4404 19329 809
23977 13643 178
969 17354 293
7477 28909 662
24452 279 354
6040 21943 6
17242 16805 883
27150 2035 942
23171 5187 592
26087 25924 769
12703 18474 865
8976 5363 593
27698 29412 826
28255 24099 346
24890 6290 114
15972 11763 722
7233 5618 696
1965 28750 840
800 15044 688
11814 19435 334
9326 27190 272
24968 15417 801
26208 7283 292
2320 17950 267
17897 19906 483
28962 14204 170
22570 19339 978
26126 21800 33
22211 28890 479
15772 4121 384
7484 15141 480
16973 29011 608
25448 9513 566
15132 14774 343
27560 10601 176
3603 10414 947
14863 2487 87
19102 9127 185
27304 2630 691
5795 9857 188
7023 24419 499
5426 885 217
24612 5968 145
26127 25148 935
22403 26937 635
11657 2321 80
12276 16300 431
20662 22086 443
20117 4430 793
16764 18335 808
4522 22177 688
26320 22853 366
2808 9467 852
14386 2276 552
16898 29874 655
8465 19590 409
20826 23801 863
7253 1909 719
22938 2481 931
11361 22405 804
10308 12500 660
11913 13516 124
9694 10959 44
8662 29972 578
14312 21232 101
13687 12002 445
2151 29370 733
7387 11934 873
29439 3651 51
22903 24473 678
7291 2269 227
12674 14896 307
1978 3139 619
1843 24322 157
27020 657 797
23297 14786 528
2830 21 590
15501 29216 940
1754 29577 101
5788 21829 632
10549 14603 975
25711 4735 574
5727 21453 38
26298 22272 955
21706 12259 475
29645 13821 358
2400 4704 781
22668 3575 259
4949 17754 812
13223 14068 172
6934 26375 581
392 25212 797
28114 29154 238
24113 28119 249
28103 16931 422
27143 11194 652
17645 18059 374
13602 21455 101
25686 21894 94
3219 14491 174
28771 13539 231
6896 12112 495
903 24460 587
10658 27452 203
15711 912 967
11507 28160 501
28439 9504 207
14079 3257 107
24458 24753 977
15961 8786 92
18192 12093 956
16623 29760 983
14031 24382 740
27474 2018 2
2396 25384 570
25047 26718 492
19239 3589 925
24576 29970 667
14288 2957 896
20328 16333 803
15845 9262 568
20572 11035 1
1070 13786 399
6967 22117 484
22432 15776 685
1518 20297 839
25948 24486 421
29338 13178 524
12754 26241 720
15180 11383 423
16180 3446 560
23885 1714 132
648 16610 673
10238 7927 450
1873 19246 121
9317 16171 709
28304 21276 6
25968 5266 281
16473 10478 932
22477 27405 185
25116 25694 918
5420 21855 137
10017 28459 85
2446 353 891
29270 8013 103
27179 18654 308
21298 22671 525
6497 26653 681
3014 3246 49
18936 5949 822
21602 14517 781
28089 23110 952
22684 570 821
23415 24907 565
13481 11181 802
12879 2638 954
10741 9821 233
28595 751 549
16978 17617 410
7443 15063 516
26406 10528 765
23209 18762 267
26433 27124 78
25874 7840 875
25880 113 27
12095 11571 256
9778 12704 744
2612 1328 816
25096 19344 418
17610 3349 952
11476 13087 943
13971 27204 120
25899 27879 595
5211 24860 179
7388 3671 600
2591 12101 209
16535 12166 224
7853 22914 596
9687 28835 319
10754 23834 770
28003 22142 762
11078 1726 745
15440 22009 711
10714 12314 315
13503 664 242
4217 20602 578
24371 3927 774
10094 18029 533
7780 13830 554
4927 2992 469
3666 9940 780
28514 5342 483
15679 11144 44
1782 8954 448
16371 18476 230
26269 24932 305
28253 8647 3
407 581 201
26884 26913 622
26887 26946 444
21023 13563 330
21892 3491 251
20271 9656 77
24594 25830 282
24996 9188 26
18592 17200 58
27833 193 172
7857 6934 187
9006 21233 551
7075 22468 89
25420 28494 239
21816 21999 88
18051 27580 109
14232 17151 554
6352 29487 979
331 27190 659
209 3587 183
16923 11479 406
5052 9151 10
5903 8480 400
21779 29460 544
10100 1930 421
20071 8254 412
15253 27098 602
19905 6429 77
2192 14949 600
19640 8526 544
20165 20599 104
23136 17075 683
15768 9865 540
29828 20037 948
27067 18080 745
382 29753 85
19082 28590 338
3832 10426 585
10104 10527 118
2644 2439 593
14581 20162 886
13873 13662 194
19274 11392 1000
14945 17614 676
16171 10725 365
2908 11328 982
4017 9775 202
4241 23281 435
8335 28016 106
16179 22900 908
13870 13699 680
7036 1292 979
28519 21828 466
18028 18392 79
14545 23811 272
29916 24508 3
7000 4162 502
29005 7825 514
23269 16093 47
17156 24622 833
15676 24604 241
21824 20572 117
10328 8561 800
16114 3469 209
14481 18141 499
16577 18545 169
19839 27033 728
4553 29055 13
10657 3658 725
20050 8024 353
8965 19484 621
9371 11456 746
29479 10263 206
15591 9651 617
11903 12782 289
19272 27352 175
20862 27447 118
9579 26506 883
16624 29514 65
29553 2901 916
15916 9805 529
4447 18126 376
15699 22316 771
4082 2525 416
28364 12595 597
28482 9365 956
5718 3769 183
142 5507 563
28460 2460 312
25141 10306 13
23404 21596 389
23327 29275 494
24532 23027 12
10565 28396 525
27824 24791 695
27914 11959 327
23027 14603 804
21389 20405 294
3653 3129 632
25580 20175 353
6514 26576 44
1192 23243 445
7661 12997 326
5859 24569 532
12794 2390 139
6996 22053 650
3339 6319 852
6636 26336 377
10639 26990 164
7411 5696 919
5220 5727 635
1638 362 864
27952 27690 686
6632 26517 751
15365 23686 483
14840 18828 493
10213 11262 993
27405 8415 258
15340 9776 172
15248 21554 153
785 5147 650
3008 7805 398
22914 10590 657
12711 16689 461
3509 19044 905
1112 24281 447
8307 29432 943
7329 9581 76
10961 18890 688
14066 17602 586
1081 2279 858
26628 13120 97
19700 5679 46
6758 28458 30
4870 6370 617
3261 1983 295
22403 14008 469
17153 23317 525
7325 24761 651
8002 2169 984
25592 13704 441
23080 4328 10
15586 24326 419
21752 5046 352
10987 24234 643
27326 22400 659
28203 19695 64
16600 4821 426
23797 12355 964
26914 23316 8
7248 23130 663
10656 14378 603
21640 18978 822
17498 11769 412
5411 16264 45
4294 27915 350
29416 16444 31
11172 27293 972
25187 14714 703
20658 17224 632
24268 16605 887
15363 4465 798
13328 14427 501
2347 3385 453
28295 7512 836
19149 15530 988
20547 28853 119
12186 14027 514
23996 11418 788
5040 15202 497
12300 9217 110
9955 13881 221
21057 20454 4
19250 17553 411
24476 3485 534
2208 17809 122
26168 28934 502
3745 25750 281
18184 17677 458
26100 15189 879
16260 24233 176
16659 18620 871
2579 18420 89
27241 19194 506
27202 1839 170
29128 2161 56
9746 27033 672
11815 2473 458
11488 9173 391
3181 2162 59
1462 20844 448
21868 22803 3
24209 6048 337
18533 28382 777
9115 26939 281
17112 23484 542
17024 22573 175
3059 3459 534
26498 11642 71
13523 11431 735
11922 20165 120
27416 27601 614
49 13164 812
11264 10017 297
14367 26556 260
20571 25438 554
4404 9949 574
25233 7021 679
6776 10504 104
23988 23359 827
27383 23040 466
15953 26025 733
27217 4249 411
12931 13677 151
21581 25569 657
1387 27109 591
1370 2704 703
3717 20237 657
20496 5563 586
28035 339 831
19564 16829 570
10715 21225 613
27764 18273 729
27695 14283 493
22161 83 245
18222 21001 92
21028 27998 686
9342 17033 2
12836 6075 868
12815 16553 61
28552 29465 489
29736 1813 333
27917 16939 760
12869 21131 414
1169 22099 269
21015 27323 794
12651 26809 738
5725 1468 49
4192 6678 746
28205 29299 664
25295 21849 257
28360 23593 761
29463 25242 423
21229 7033 82
7415 27018 573
1044 28736 327
29070 11349 191
20083 27769 648
23834 21900 469
27617 2558 264
28040 17856 532
14168 13754 967
27255 22634 38
624 27554 178
14956 16874 874
15940 6290 774
29295 4412 556
18281 11482 103
27249 24936 61
19399 3846 154
25751 23897 918
25558 3645 600
6433 20340 701
24545 28481 285
19981 16879 741
2087 12542 758
2742 708 689
4182 6844 354
7812 29901 622
15034 12278 605
11665 19786 802
9915 19024 12
20602 29915 41
23706 1103 571
6229 29345 753
22045 29104 471
26821 19344 456
22051 25401 751
6253 12558 292
15498 10402 71
13284 3121 19
18335 9550 485
28533 7306 413
19485 25094 272
16742 17130 388
24526 29150 169
11992 5349 291
813 24203 350
10573 26794 719
10626 14949 657
2926 23215 213
19244 23140 766
20860 19108 140
24009 6616 360
20692 28996 812
12771 25653 629
9309 9262 367
13434 17406 465
8879 27384 672
27730 26247 759
25370 20771 144
22906 28250 881
2309 2183 270
26155 17203 794
19897 2113 503
26132 4809 768
10128 24102 113
27582 6469 196
26576 24732 202
22123 7079 184
1240 19330 103
18444 18292 83
22156 29175 107
29887 5275 183
20712 27116 61
29466 28830 212
2557 27429 331
27074 18648 410
7977 23883 165
2377 12810 557
10564 16072 380
14945 7813 699
15373 15826 878
24047 13706 359
20871 4179 237
8509 29175 421
9023 5388 773
17948 7647 774
20173 1961 374
26912 22293 676
29767 22018 819
2339 27134 11
5836 7977 959
28956 25253 867
1855 22012 759
9437 21089 612
2937 5636 197
11128 27102 656
28931 24178 318
23408 23830 466
2993 7053 309
23431 17276 794
18029 11672 848
19908 28273 739
16514 4757 755
25367 20802 710
4739 18746 773
26230 1701 625
20620 15078 165
8842 12948 902
29588 6719 527
14933 9234 564
8901 8689 995
8089 23188 892
20858 22853 953
23025 27925 363
21526 6717 266
27202 20887 734
12250 7570 313
27807 27076 424
28626 25530 306
21226 29498 794
28179 705 586
25145 28056 629
1014 13836 309
23227 11847 267
7952 8437 189
21649 17738 201
9629 10100 409
6237 20571 260
10413 10735 112
21333 14623 703
1798 21836 927
20991 28956 389
22840 15112 528
24300 3651 161
28528 3822 724
8705 2905 284
13352 18463 468
3749 6716 105
23828 28346 840
16657 14921 981
29414 301 417
19415 22742 137
5677 19369 454
12313 439 925
24278 27454 797
2131 29173 196
29237 28774 939
12701 13812 731
25684 27199 470
29890 20740 651
21272 21062 907
9632 29241 241
20145 23253 659
9143 6118 508
27276 8925 88
6688 8844 890
22207 26082 22
28533 7094 593
809 13873 932
12414 15187 468
20676 28559 704
25220 3248 317
28425 6598 257
25841 28216 647
1688 29861 221
17015 27538 372
11129 1156 510
9768 25981 302
8598 12901 66
12344 19636 459
22526 10308 661
26391 2330 462
10920 21264 188
16883 1658 109
25465 9537 683
56 13814 509
1972 27713 162
3214 1049 256
1592 6104 552
9525 14277 646
1096 13983 366
3894 9417 360
4282 16445 656
4054 11618 697
18324 168 352
6844 7653 834
2754 10772 9
4893 13370 951
29410 28693 500
25975 14491 956
15586 3731 525
9662 26816 351
8592 17249 925
4711 3287 931
8053 16136 690
8325 24825 963
19458 23306 554
23917 21740 388
28569 20935 881
27251 8009 727
22512 28039 343
440 23271 175
26211 9091 284
18384 18608 498
16635 652 39
1478 7498 913
19353 2339 811
25351 289 685
21906 17423 265
22255 20385 625
9141 28103 521
2285 13492 188
11376 9570 129
5689 25828 517
3503 5102 306
8607 16975 171
26593 24744 976
25457 24847 934
26086 5567 439
16465 27981 612
28772 22935 478
3955 25928 986
121 20590 990
28672 27010 310
12480 2510 71
28484 3331 80
996 23880 204
340 20575 831
27848 8801 692
18978 26193 897
15803 20816 36
13499 27940 309
5710 20335 540
26692 10196 725
24269 15291 21
17859 14928 417
16911 13278 178
24908 23567 579
21214 21306 470
6945 11411 677
11005 27061 713
10535 22685 598
27778 29417 613
21655 13994 408
28359 24419 733
14554 20104 692
4170 8717 345
9205 27309 623
12442 21062 468
24988 27696 424
1308 22128 100
27948 10051 366
22343 458 53
9837 28788 747
3618 29611 789
3226 5654 1000
28165 29578 367
4422 18748 590
20027 16711 125
6437 26248 387
4250 5291 885
25962 19035 115
24733 21108 217
8345 28082 288
14813 25018 360
29045 23377 29
24983 16988 767
12209 4556 186
17023 18447 126
23568 13423 437
29094 18827 332
19612 17261 36
7308 21279 578
4332 7371 454
24469 21188 253
23345 11146 63
11896 10372 164
8816 25808 51
6454 2802 997
11797 22881 340
7502 6050 459
23841 2011 296
28480 23209 831
24742 29189 119
7506 6825 168
29736 26986 135
23442 17592 964
1081 3212 334
5100 9311 196
27932 27636 660
20742 29369 206
9894 9147 177
24071 24682 924
13626 9095 626
14624 11917 630
20490 10408 697
21353 24842 132
27804 11174 223
19006 2847 307
8857 7530 413
866 9348 482
17579 13766 181
24127 26738 965
9500 7025 107
3794 19837 861
21941 764 387
26199 14586 217
27618 13011 252
15460 9405 254
23699 7551 828
20390 13088 453
17906 17350 867
14557 27446 277
7064 16149 294
2994 25341 591
21594 371 719
26812 612 311
9018 11613 646
17757 6040 753
21569 4281 783
5359 29638 406
3659 1457 10
9337 24718 479
17461 25897 918
27043 17409 378
7551 1954 846
9880 13196 524
8962 15760 360
2151 27693 879
12738 21721 427
19028 12484 10
4122 12585 115
13085 3244 390
23832 17436 109
21723 29904 280
26622 10308 953
26705 23698 953
10636 29112 340
27214 25370 633
12680 18029 13
28185 9184 377
14789 12573 854
20442 6315 947
741 15855 235
2680 24691 410
20420 13504 914
14519 10363 693
8734 7508 350
24542 26121 282
26861 15104 72
8583 4203 132
10723 4729 76
27567 3289 238
21975 7841 575
2247 5039 168
13798 24296 436
19736 11068 661
27452 20579 487
21474 3195 811
23145 22245 52
28867 12218 321
1028 5807 441
4868 14566 898
27489 16053 484
4444 3946 3
22003 9392 44
18048 29420 854
11343 26190 199
12790 4827 478
14166 1521 473
3309 25701 749
12001 29900 258
5144 1348 455
14724 9027 793
29627 12145 677
19352 17653 573
3044 7557 275
16257 20585 29
18926 2888 337
16894 11998 907
21474 5215 890
1530 15484 341
1749 5705 583
11162 18131 197
25116 4430 394
4475 24964 437
21967 29321 80
21944 20472 499
8981 20760 967
9003 16989 166
12530 24972 210
25165 29938 181
8126 19955 106
29 8170 281
9931 22586 579
8139 25412 815
16107 1728 624
18503 10515 946
29232 29837 303
24431 125 724
17494 22822 684
12971 832 626
13095 28942 700
15671 6752 76
23831 27543 951
12078 26191 372
21237 22390 812
5187 2616 961
5500 17230 983
23243 19323 29
26068 6212 74
23589 4561 390
15985 10947 326
13870 12973 678
20861 1948 321
26607 18838 921
9555 6773 741
25813 26483 963
12908 10571 145
25087 25256 747
13287 10861 568
6006 5188 25
2625 18032 411
21596 18221 573
19205 22211 275
21329 22482 412
21947 6865 319
9700 12891 813
21074 8246 261
21575 22256 606
27367 23942 979
9112 21590 433
11668 12460 52
11613 186 623
13182 5248 975
12336 11176 891
18636 9272 178
12351 18142 457
22862 7518 560
5219 19935 38
22903 13602 575
16765 17206 755
2102 19706 346
5356 3435 208
15977 16345 22
11400 22970 137
2500 17418 833
1341 4906 817
24060 2508 68
11297 12505 434
25977 26549 409
22339 9744 459
9363 19740 510
12552 24721 578
17545 4112 68
13782 11148 145
9838 366 331
23197 28819 816
14056 29353 964
19768 23136 589
16732 14864 771
12463 11162 882
9488 2214 202
5480 8883 21
20602 3433 221
20 21089 968
7575 1109 183
5214 7066 606
5516 3602 455
16469 22327 207
9269 12903 328
21284 18560 236
22086 9459 249
24051 12425 264
25598 29720 943
18326 7558 409
5335 29410 491
23420 13178 680
24620 26457 808
29472 19316 172
9479 27252 97
939 12770 880
25579 9607 809
14333 27331 323
2011 2407 923
71 23699 399
4664 4810 646
16471 28740 76
14055 24719 242
22094 16923 623
22302 29896 483
18671 1953 664
27784 2477 88
16393 22948 997
906 27368 796
11620 29972 441
17392 25365 992
13961 29735 685
28422 8579 281
5944 20568 230
25482 27171 182
18714 29819 614
13529 16028 566
16195 16201 709
17117 3700 903
17071 24927 290
25772 9471 10
11822 7381 216
10292 21743 556
22845 15332 257
8071 20513 438
4198 22220 603
1460 28084 243
27437 9064 478
4097 10389 97
11601 19434 436
8572 25515 711
15795 3034 434
19130 22393 273
18615 7150 796
21014 6941 65
29531 7972 711
7704 14313 732
2617 10007 197
29901 16298 927
12484 19796 703
17291 28060 88
23868 15989 437
4322 20633 859
20030 13768 943
4612 10870 888
21755 2596 410
20257 11191 303
8616 16498 38
21297 5169 152
899 11147 934
5206 16435 361
22147 671 323
28776 29216 579
1232 2154 494
7303 4617 817
21748 3277 958
28590 15738 419
15440 25294 981
25487 14980 850
12944 14443 692
21824 11914 448
11749 20230 534
16864 17081 624
19675 8252 689
16237 25645 116
15240 12363 529
21510 18528 855
1174 7393 874
1314 16760 919
11879 21786 221
6573 24346 309
12795 2614 657
12825 29765 143
21556 18275 240
3927 5340 17
29863 1232 660
21806 2823 435
497 3974 739
18766 23119 75
15742 15157 903
27382 15245 7
22891 15959 114
9470 28834 373
15674 8219 297
28067 13983 802
22206 13372 978
15160 20938 955
17779 27010 469
16489 1291 950
28810 2097 667
27017 17346 423
21911 14903 667
6959 7569 624
18832 2733 760
9405 22438 656
25167 18924 238
24655 26587 849
9075 12682 756
11165 26651 596
22946 28581 190
26505 28053 372
7912 20144 712
8677 10864 36
17786 1774 809
1405 17882 761
13003 28046 643
4329 27052 815
10901 7815 205
4756 18121 9
17044 20958 145
12051 14094 65
10547 18800 466
29185 12295 19
7690 20266 543
12457 23157 389
28335 1647 830
6756 17838 414
2995 20851 581
20940 13729 193
25931 27502 544
25059 23814 432
21373 12900 116
8852 25923 393
329 26595 225
21760 14736 735
14744 13926 131
27357 4175 183
22672 3545 288
21264 4487 574
5064 24871 749
13488 26581 665
20722 28165 885
2442 21910 538
16980 16596 517
17377 26972 755
24812 16923 712
433 23653 478
1360 23829 925
14681 21083 535
5221 19626 931
20037 25987 819
19187 4331 731
11116 23879 618
1876 24367 581
15329 8806 580
11992 21150 701
14291 18368 480
16232 7417 56
3061 20544 345
20703 25241 854
16841 25485 835
17010 29043 998
29281 24313 538
7688 25913 737
5413 6079 656
23040 11372 176
18756 4947 318
1632 24400 606
6629 20164 819
9382 28731 342
1947 5614 436
6775 3257 803
26014 26850 133
13710 771 166
16505 7680 987
28303 7222 893
15212 16494 658
17648 17929 982
5076 21942 101
9186 1622 695
10716 19484 384
14369 4784 100
7541 24784 657
24441 5176 545
4669 2259 156
23312 8061 937
22359 12211 49
16205 4634 397
26575 23874 487
12671 27469 25
3196 8866 33
5596 12437 990
1871 27459 194
9457 8 783
2531 26169 674
5845 14972 498
28621 16569 269
17935 26873 78
23812 23231 725
22308 22814 482
866 13111 30
20314 28849 274
25929 20991 83
4347 19742 703
3409 28250 536
9135 28536 456
16697 15252 869
28802 11567 967
26433 13185 714
18341 1819 604
9064 26587 640
5568 2189 280
9742 28567 266
12539 24528 730
11116 24642 203
29896 18194 205
9459 6441 649
10508 9342 55
26137 4620 828
13055 20535 230
6111 5902 337
21628 10918 1000
12870 20205 647
22826 8488 589
8091 24288 428
9819 7937 915
25737 8822 752
13763 21299 622
11733 19311 215
11047 28128 637
26469 15269 428
29274 26508 766
7282 818 287
10864 9507 251
1776 10343 363
23932 24176 792
29279 2432 35
23135 2391 629
29944 15339 993
29616 1023 812
29091 20135 738
28467 13869 392
989 24928 373
10653 4693 33
13593 26838 14
25368 11477 284
26527 1515 489
22447 8880 36
1193 17898 377
5548 8959 285
16027 22046 283
17714 8886 754
25733 15593 958
20111 12541 229
10389 27486 867
28858 15181 426
1498 12426 708
4950 8606 706
26164 14026 654
2411 29494 894
21565 2506 406
19371 3449 307
11301 27100 554
24730 1731 339
28600 27022 911
26801 19087 809
2081 17448 628
13107 25158 439
10059 5087 484
21975 4547 540
4282 532 286
27285 3474 603
12500 11632 322
22171 6233 460
8141 10851 317
16911 28538 634
11452 4622 850
5615 27405 441
17301 11050 970
25958 21151 473
5542 2004 930
12287 12631 349
21837 1380 983
1248 25661 382
2772 28210 671
10797 27634 408
5548 18682 564
3899 2159 845
13772 27304 815
17984 26503 372
3142 2545 530
27052 6453 817
10122 10576 915
173 3497 994
23583 9313 817
12883 8038 953
26784 8916 765
21487 28955 316
1858 26492 501
5351 19627 268
7269 17332 974
23132 11706 725
4647 9534 30
15906 26972 693
17765 26130 371
5199 12333 54
20301 18434 224
20146 22069 482
5861 11863 1
16936 11035 331
8465 1138 615
16014 22830 121
19767 15013 446
6873 28205 725
17537 5198 71
29972 5781 484
8283 13894 722
23469 21405 449
13286 29439 196
26988 11992 440
2010 20506 311
15085 4682 425
21204 27231 501
20060 12820 224
25528 19935 45
28979 29268 817
23682 22886 815
9465 17194 535
5328 24814 489
5176 2111 204
4760 15917 575
24809 5463 694
19992 7095 678
522 4552 472
3062 14259 855
29825 40 842
28109 14063 564
12253 29742 488
17744 9584 349
25309 26901 537
20542 19776 312
22106 10205 297
24913 4377 120
22270 27100 999
22133 22135 605
6934 26845 335
29690 8631 589
3706 29163 220
3075 25122 826
11472 15675 944
29969 1325 873
23356 17855 369
9192 20771 763
736 7454 977
17103 17357 424
898 25127 667
7079 24451 492
1152 3999 344
10556 19670 965
25107 24708 422
6952 16007 571
21406 26832 506
24835 17790 178
9758 22940 621
15021 24801 542
9959 3365 981
4915 20340 50
12404 6550 913
15812 8236 965
19869 7147 905
19029 10221 686
10973 12124 481
23234 28008 561
27409 28018 667
22596 5357 229
23801 6031 225
19053 2972 397
28361 6109 90
867 23473 919
16201 24146 542
21017 20297 852
14804 18888 773
15085 22601 988
26990 2082 504
10728 14580 123
17623 16063 204
28446 23910 424
14956 23046 257
4182 14794 113
7424 1805 127
13736 17034 874
4269 8133 589
16693 8231 44
25964 18542 852
27984 27761 374
29650 19896 282
4138 21862 365
28703 15234 437
4639 24589 719
4086 25361 715
28732 21376 111
1731 8756 280
2256 19707 961
9696 24226 319
6361 8083 987
25042 22982 681
27888 18326 574
21017 28910 863
953 1900 128
23476 28110 37
16293 11014 111
29515 12786 888
20038 10308 66
11296 18613 424
12122 27103 661
22393 17901 286
7694 5618 352
20834 6349 650
25495 3490 368
15860 28528 362
17408 1661 762
12210 17291 398
29694 17888 736
24993 23698 885
1470 12667 947
12708 20043 707
554 12851 266
23057 29092 861
18627 22294 179
19770 10102 6
6344 25472 622
11747 26341 695
3819 4094 617
10611 3239 959
11687 26938 639
865 16781 318
25492 4749 991
24745 7164 99
6199 11636 138
25563 6956 618
28296 15144 645
18731 5380 58
9199 16143 715
23282 7952 29
16417 488 731
13941 6719 442
22576 12880 292
14336 20260 402
19578 17193 953
26975 25521 924
19293 22617 318
27496 28556 143
13619 8269 154
5250 14144 373
6794 844 325
25262 7773 101
15105 7152 704
7381 20220 599
1569 21644 392
10143 1833 637
29243 4877 945
13839 26867 769
26469 23060 639
24602 15216 405
20768 14577 179
5073 7612 581
26856 10399 224
14226 6539 764
21935 13905 900
15125 11355 593
23320 2870 562
20925 2910 298
1901 12795 877
11763 12059 864
18886 28332 323
6099 26885 219
22297 28243 503
27482 24296 745
11063 22218 704
12901 8602 109
16955 4895 47
25669 16994 464
22779 23628 380
17235 9089 16
18257 10471 230
17138 9226 252
26207 15210 843
28863 27695 902
11071 1024 980
26868 5355 657
6612 19113 326
8629 25512 379
15515 12569 246
16401 27555 558
20370 15561 1
13286 25966 111
1250 5758 37
5993 12690 386
3172 21003 883
13620 14329 201
910 28702 970
4189 398 51
26093 27389 71
8442 24258 422
2710 7937 527
7236 23220 999
742 23307 729
8869 28051 971
362 27547 199
18988 22347 542
20350 7189 306
3511 29243 607
17843 24770 992
12355 11435 312
14195 7442 160
3339 17730 188
11829 3443 560
11158 22244 611
6089 14372 304
15410 5791 592
16986 15454 518
18359 6481 839
4328 14598 845
23672 15856 110
13107 20216 667
8135 24923 422
13752 8893 293
27075 27929 179
26944 12754 440
22660 14741 446
6406 4124 594
26689 15365 966
4619 28658 921
23858 8962 881
19094 14821 6
27468 20818 615
22422 25762 843
18401 29960 71
28493 14147 459
27361 17313 356
27471 7314 98
17512 23649 722
28366 23230 858
26941 21043 967
27029 29346 462
2187 16400 106
7686 23377 931
9013 22455 356
23830 12889 711
518 5553 850
3269 14491 148
13679 11599 882
4231 21864 606
9319 23960 707
28208 29809 997
11515 28365 183
18053 8468 182
5816 22122 551
15235 2220 987
18945 12672 921
4646 13603 19
25865 11071 201
14506 9570 299
17222 27102 187
18729 23242 330
6333 7882 99
6945 10864 834
27720 308 676
28055 26972 689
16090 15120 592
13209 2206 315
28360 10522 702
29196 17803 408
22530 12382 83
21654 6531 312
11482 15940 438
24945 27058 745
19919 29076 784
15968 27810 540
5995 11252 775
25028 12816 875
22390 1812 977
934 13436 865
2487 27302 892
11005 19228 613
1033 9313 884
18440 26941 334
5057 27667 902
15004 21769 697
5948 12934 195
18632 23544 443
11898 9212 218
6327 6991 647
11356 11927 387
8797 28740 911
4226 17867 711
28500 25949 540
7512 27059 546
18522 27346 138
3792 7084 278
23525 17517 170
8492 21209 66
9313 29410 831
3924 28878 363
16980 9597 730
9769 11229 483
18882 8423 132
21481 4183 371
23312 27958 599
29991 21429 648
24930 17580 805
9674 27035 958
3398 8881 709
1388 29512 289
12056 10949 133
11395 26671 383
11284 28990 450
25271 22141 593
22646 8527 607
1361 29884 666
19621 20789 811
24831 6248 745
10614 15421 837
28095 9207 198
24976 18067 275
27916 2510 108
5013 23600 382
26674 21223 947
22374 18633 519
19152 9009 668
18965 14090 621
27185 25181 269
10882 22957 469
15903 6798 669
13144 22098 512
10169 13814 945
2080 23225 895
18359 4165 921
13846 29912 510
15992 21997 831
21774 29575 634
27550 12818 68
15023 4615 740
1497 4863 441
7720 14735 260
6127 3427 760
12979 15304 682
2356 14275 523
20835 14129 37
13672 26988 660
24758 23283 73
12587 9456 596
12102 9744 285
11746 13498 576
22219 22538 1000
8591 411 556
9672 29352 399
28855 16934 997
3504 5346 632
20591 16622 326
3301 25581 164
2034 26463 970
16940 27248 108
4450 28986 136
13486 21662 83
243 28444 106
16233 17465 365
20506 16273 384
17554 21211 127
11592 2614 612
7825 7855 149
11507 24542 217
3883 29020 769
2616 7282 11
27325 17084 170
8525 24247 551
29434 27014 40
29719 18706 48
9599 25915 662
24722 28439 351
9688 1406 679
5139 7200 204
18820 2812 260
2517 17919 603
19343 21978 342
7058 7298 746
14286 836 117
11219 21639 933
8123 22316 363
13517 26640 588
8391 7707 317
21196 6763 305
25203 14114 834
22445 2071 333
24331 2732 775
26746 3253 239
14072 16038 282
19454 18827 447
10308 27568 904
6708 14357 337
21458 8035 347
20706 26282 758
8645 29314 946
19285 8667 106
14845 7844 469
3815 20838 45
19564 7831 351
3979 1132 104
10475 28111 722
23897 22263 95
22305 29147 810
5127 7105 316
7404 2950 687
20886 14173 713
28799 2385 432
21746 18262 624
25366 991 830
13841 3946 598
29145 20959 492
29138 17134 840
15981 17859 752
28569 6640 482
21620 11916 596
12787 21118 363
22250 29195 513
4281 23731 388
1722 3485 918
4581 21392 883
7944 26349 188
24827 13799 597
15498 27647 143
24517 18565 252
17507 11592 170
2837 22045 238
23018 2681 149
4780 24335 482
8664 16913 741
213 1863 34
29594 24899 579
14700 25404 710
18137 1141 441
27014 23314 223
1890 25420 213
10945 29438 810
11122 11628 685
20933 25929 507
28890 2708 53
20287 21105 618
11633 11682 598
29636 19588 852
21458 14016 549
1031 4280 966
11775 4140 997
21479 11465 344
16521 29341 366
28652 8567 469
28302 13075 954
20601 22384 982
25886 21003 489
26914 15224 244
20903 8020 697
4273 29269 525
2289 3815 531
15543 28122 600
6756 15886 68
26823 16885 452
5937 7246 590
15774 22462 200
25998 9414 905
26584 8315 210
14912 20901 118
12049 14597 766
14450 9562 189
16299 18669 503
7094 22577 385
20802 7801 560
10026 12109 73
7179 26103 970
21751 10048 859
7136 2073 570
24290 14597 349
11175 27419 980
9194 17246 64
6317 7837 638
26231 20408 306
21486 28188 436
7204 11689 491
7380 13332 151
863 18382 996
11601 28531 181
24671 17274 487
24665 5361 369
19792 22547 247
8121 23282 797
27997 21993 92
9313 5596 109
18913 27525 49
17645 27405 944
10028 9142 757
21277 21329 61
18080 27987 593
8076 11535 405
17989 18123 967
8330 13095 931
14987 11650 495
11403 19748 990
4083 6808 652
1327 15359 470
22211 13452 868
664 29150 854
4702 16366 857
26861 24452 487
3898 14181 787
14244 18752 670
9001 3786 469
6733 27966 57
24523 4793 736
7825 25152 624
6056 26788 643
23881 4111 960
29700 27834 711
349 9538 728
11655 6791 337
17051 6493 19
8266 715 128
5830 22546 583
14803 16076 514
29764 9535 69
26448 15812 978
27953 394 10
18116 21345 721
12013 6464 200
11350 11925 214
17174 3004 979
18931 18002 399
9431 20667 115
27876 24752 206
9856 14308 422
29926 15829 231
25127 29930 85
26816 26867 861
26750 24025 975
20561 18441 488
5279 5381 634
25065 4454 240
35 8044 290
20453 3442 11
9920 17070 831
154 20522 350
26259 11631 602
11443 21143 926
29707 492 472
11642 6766 332
234 4710 582
9042 24745 47
22364 10233 290
17362 10051 636
28802 17421 346
27645 20361 293
29644 19297 21
8786 19163 182
15622 23393 626
9170 24172 211
9391 28083 466
27003 10538 791
23861 16822 428
17890 4299 654
27138 18886 790
4105 6671 170
15199 8771 982
2106 27309 690
18132 10537 357
9676 9819 621
25801 6370 749
22706 19287 464
9451 24341 835
3086 22176 501
24516 13325 728
29745 28032 363
10214 11055 511
28322 4939 524
18800 25688 364
10602 17333 715
3378 15607 753
10270 29245 786
7426 1596 457
6537 3739 281
2984 14244 989
16109 21217 145
12084 23988 453
18530 1910 124
25235 19905 768
16978 28351 382
4504 12435 752
25875 4680 539
16902 5676 42
7015 18689 357
13932 662 312
14121 19094 940
9814 19374 917
3376 23030 396
2952 25844 838
10761 21876 253
12735 11990 645
7905 19357 562
11574 5255 656
29745 21883 769
16282 6508 169
14735 21954 753
16987 19224 248
23226 6233 245
26160 14668 985
10548 26675 483
2745 5359 805
16023 10249 355
17124 17300 424
20008 13330 929
11645 25074 976
9611 25225 751
8131 7227 260
166 23949 577
25251 18887 34
18151 29891 440
23437 23653 900
27761 17438 760
21994 9310 564
17863 6179 905
310 959 825
6834 25822 718
5648 1841 791
29045 2350 273
2056 11176 15
17847 18363 586
17330 12653 374
15495 22122 960
3230 8264 182
13098 20232 878
4195 8304 544
29417 18287 51
15255 15540 205
10282 26727 181
15869 2162 634
17513 292 801
10022 28364 86
22913 22213 457
21210 3635 349
17214 9170 694
556 21186 136
24804 11517 9
2962 16493 515
8211 4235 128
21414 26286 424
9242 20996 163
11329 10398 352
12968 20644 713
11351 1215 265
3208 775 431
7006 23661 687
23476 21740 93
4142 9037 47
29003 9497 69
3308 13916 858
9129 11071 868
28322 21829 326
8075 13984 70
4703 8834 422
19990 17052 506
26001 20320 608
22257 17790 73
9840 12171 326
9964 15515 533
2446 28859 838
10256 22741 55
13036 149 655
4969 2449 758
16013 18290 750
11458 3537 993
17956 6176 788
14694 8373 852
29335 6370 791
29543 18051 507
16336 18931 362
20189 19716 365
3003 24064 441
23142 4398 448
15607 26447 735
10280 17461 847
19420 13587 272
21803 8839 664
8362 6394 191
21367 2006 310
2653 3114 651
10026 4205 839
11099 19750 335
11716 29376 679
8941 18393 183
4757 28705 176
6664 2068 30
16351 3338 172
12055 6152 970
12889 9750 730
18080 28797 744
20927 21240 640
737 5579 221
3004 6887 649
29397 11581 453
7541 24675 502
22878 1702 857
16614 13863 712
13087 1711 977
18313 3936 381
13889 3909 317
18393 27562 294
442 23688 558
29299 7791 839
25375 19300 214
15392 1360 519
13338 12330 343
2268 14401 786
22952 15032 585
25095 2553 429
28265 3925 901
19052 13466 582
13320 29773 917
22384 6086 310
11387 8681 880
11433 3232 392
8609 5352 877
14231 13541 623
12856 5064 462
1518 9313 894
3111 26187 956
20039 2227 441
27589 28569 912
26252 29412 300
18067 24195 761
20474 22841 395
29980 1203 693
26425 21050 231
19041 24574 925
4476 13889 16
28643 7536 374
24351 8682 872
2464 24393 667
16983 21231 707
1272 10343 589
2756 24725 275
1674 9316 216
18413 4322 8
18389 26055 472
24375 14503 209
5587 25947 355
22771 11755 621
23544 29351 554
7250 6706 819
15724 14804 70
10390 12375 769
12955 20007 979
4506 5964 504
1175 5815 21
20884 21452 827
28738 11485 662
28496 16485 192
25208 20023 663
26667 4114 646
15742 16364 468
24727 19590 409
4731 29358 891
28659 1381 883
19374 12550 24
20881 15304 802
23750 6027 581
11628 27329 616
18819 4229 35
17832 4750 887
5760 17465 585
15738 12549 472
9321 24512 160
5598 28680 756
12718 433 630
20977 2775 859
15867 27907 410
27033 28930 997
6075 22764 63
16218 21420 64
24235 3627 636
1558 25994 54
20246 11389 206
14395 9044 584
16349 6191 490
6319 1313 406
23935 28475 722
26480 22467 596
17286 938 327
26121 20640 474
288 10829 59
14038 14202 794
3637 3218 190
22128 2288 135
29470 12797 603
27559 23878 171
3807 12037 236
20364 19202 191
21624 8917 159
29658 23555 537
18916 25109 310
15567 25185 256
12573 18835 302
24923 22545 783
27202 27783 423
20196 27657 481
8629 19525 513
21322 20480 97
3343 10063 885
980 12936 838
29558 14892 908
9833 12026 743
2032 27898 317
8519 21561 670
4814 11497 596
12408 5699 203
27825 17270 795
21102 12218 68
9317 28468 874
27260 21158 971
25628 20919 599
20981 29529 499
25821 20393 55
15730 5475 947
15234 29286 916
3482 11271 381
10827 9219 376
689 29002 707
7379 19586 875
22851 11410 189
2894 2301 331
10454 15762 113
13323 17635 688
3757 24773 12
10126 26784 378
29839 5326 224
23689 7113 747
20981 17783 537
6061 3172 329
23349 18780 753
14792 4358 385
26440 15622 852
7380 21095 419
21082 8508 873
3370 29510 748
19914 22355 941
9381 5599 617
26594 8040 83
2460 11844 184
21997 26481 888
26067 13446 397
27339 13852 151
27800 17910 71
29552 2761 916
23077 18269 436
28025 646 180
28375 19055 88
8487 24325 21
3784 14957 714
7412 29702 633
5474 17919 932
286 16464 782
3737 227 483
24347 29822 458
13444 19878 185
23927 23182 458
21656 19937 95
29901 1314 841
12868 6986 714
6559 13136 133
8173 3330 181
26071 27729 476
18241 24464 998
11457 4695 431
25060 3238 379
18324 10049 526
15993 20263 528
18436 22521 257
28908 24747 589
25127 20375 528
26850 6596 472
25577 17872 307
25374 5618 468
9140 22410 728
28819 18465 320
1320 27786 957
18630 7577 857
18317 6488 874
12434 9473 977
19946 7854 965
28253 14223 682
1667 130 559
17749 26972 382
6680 6224 1000
11573 8467 868
13063 7748 764
21143 24299 953
29244 15771 636
15344 25258 523
12592 20990 612
14808 13052 126
21569 7372 61
4704 8582 581
29704 29134 384
24393 18788 949
13060 3797 702
15694 23519 293
14285 9976 774
9814 16147 707
27202 8685 827
25659 23854 471
18507 16802 848
20636 22761 611
10893 11421 965
22563 26717 287
16325 27855 295
15333 11995 600
5688 19410 510
14491 13021 919
8305 23170 727
28533 3284 919
3620 893 558
2183 12718 296
14093 20013 948
4399 23955 883
25096 26014 532
16182 5824 849
25630 24645 534
4913 17288 209
6071 7806 320
5083 1583 526
6800 16138 673
29600 10591 229
16073 1760 233
27463 6028 682
12850 15693 751
28895 15110 220
24647 8273 299
5395 23509 529
23155 21156 82
10987 19100 84
9803 21481 283
21492 13210 95
15181 15248 205
7531 5899 81
17477 10790 6
10001 869 381
6026 4678 67
12763 28797 153
9078 20156 47
24479 19496 93
16919 24990 978
3915 10677 386
24698 21619 951
4159 27068 436
22488 29708 33
24749 27985 74
24091 14109 186
7249 2560 495
14933 16802 48
23650 5412 767
22885 1202 792
29060 6104 457
27590 13336 86
7284 20882 721
9625 22305 985
19459 21927 44
21395 2931 321
9555 24851 701
20653 10440 588
10607 12066 174
3698 24640 841
22446 10452 371
24339 10158 377
10095 9681 470
12823 28775 534
15871 20334 266
19265 9741 846
24419 10945 463
24124 9676 956
2345 15635 666
12357 21517 927
19182 27695 260
25203 2512 948
8191 26634 378
27130 28752 730
9076 6891 164
11560 5684 133
24926 1564 43
29732 9220 354
12076 16092 753
2312 14096 898
6330 5332 509
1203 21994 297
22403 18814 459
12642 25545 381
8946 28385 817
9475 1326 700
29877 8779 866
13189 2964 684
14171 27664 806
15013 2341 906
20674 14911 572
19303 21433 140
21877 16703 32
137 24371 909
27752 12761 476
18646 16645 852
9760 20974 310
10723 3976 100
17063 9493 340
9865 2956 571
14336 4615 810
9987 12373 864
27223 4606 940
15929 19969 500
16926 3342 495
5179 2566 749
12948 21259 411
12971 24972 568
23437 24872 94
15642 17440 851
8824 24711 973
22122 11748 989
24386 848 145
2368 12344 358
27981 17323 469
29583 27243 710
21428 5936 876
5589 6376 651
24681 971 221
26014 3483 978
8187 22798 89
9057 12778 861
24603 24256 629
21425 22247 226
17222 28741 979
28456 7625 638
1025 25161 168
25282 24550 181
15353 26326 261
6805 22605 425
9750 15325 541
20163 6705 679
1833 14315 707
20676 11014 456
9575 12921 828
4275 24367 42
27861 10942 473
4295 11490 369
29461 10274 287
17900 3624 818
17831 18565 211
18388 5508 543
15618 17004 147
8812 24981 304
11164 28911 757
19313 2217 230
19928 11371 679
21568 17760 455
28422 29003 244
13237 25331 998
15158 2544 661
6138 21338 883
25193 3870 396
6058 16887 796
24166 24738 270
10863 23100 43
16521 19266 804
543 17740 374
3475 12916 475
25233 10563 164
26174 25215 231
29465 9984 909
9103 8751 921
8921 2552 976
4519 25120 156
2679 27126 656
11288 14744 725
27379 7082 526
23688 15933 808
27674 13122 918
14798 17074 1000
10557 543 524
3548 25773 666
11354 28084 948
7991 18145 140
14427 28575 835
24643 1179 256
5839 8573 368
11907 10472 536
14679 3971 162
1699 5722 480
28958 2194 21
10951 27081 537
1351 22616 157
19804 16376 945
11240 22225 793
29385 27546 914
1377 8999 231
20999 22994 619
28574 21510 579
26498 20992 268
5337 2192 214
26907 16939 396
22021 19436 680
10411 18187 825
25107 4911 86
1071 7797 709
4742 11695 535
18080 21863 606
25560 23164 985
29225 12839 900
6825 11824 460
29875 17525 480
4625 5040 21
16855 14203 107
21096 22656 707
24281 871 528
6691 19902 654
24783 22154 849
28211 12878 806
28878 29822 281
27452 27966 534
11 8851 360
8628 95 816
10352 4512 913
385 27065 338
23126 3647 15
20635 5673 434
20282 23794 303
8541 2889 55
21458 28003 448
2312 17162 301
15937 26858 756
1548 12334 525
8205 23967 764
9730 9533 834
1241 17513 621
28565 24401 98
27989 19852 366
2479 5874 519
6706 2602 856
13951 27551 994
683 22783 446
1063 3766 331
5456 25110 212
25831 23931 574
22034 11208 703
23826 29168 580
22903 14138 990
10778 28036 378
27168 3382 882
2520 16953 470
19207 8269 177
3370 20058 508
17711 19294 876
26633 16957 902
29684 19918 726
28269 29408 41
18255 22085 486
15104 2023 272
14321 28598 901
19432 24822 778
3910 9185 532
9236 29897 478
18664 10493 91
6266 26535 904
15274 15623 248
22366 13892 970
18620 9505 468
13344 2893 491
17890 27312 343
9503 13734 918
5065 25136 730
21249 14769 441
5489 10869 972
14710 4834 602
12556 4914 942
7354 14311 373
2677 9920 300
2791 15721 910
19515 11545 847
5416 20402 934
3207 20091 994
15725 25400 865
12772 13671 513
21834 12793 643
20095 17989 700
5176 9583 385
25516 1651 88
13097 26988 427
24477 21500 302
3146 1713 363
6473 4139 733
7081 7914 289
28406 9760 861
24295 6370 165
29228 6987 296
11094 13008 167
23943 13162 750
8736 17159 426
24380 9304 783
22225 3379 442
23589 16357 304
14611 13095 934
15278 272 893
1651 7526 527
26436 28381 607
26949 15752 314
15488 29335 438
10688 24488 309
26405 26345 963
19562 18777 467
18875 8945 594
10485 25205 563
3858 18310 425
4338 23136 694
4342 27421 601
25744 6551 195
1417 26629 720
19202 8436 255
9228 11642 982
15494 27115 199
25450 22063 775
12434 367 266
9225 16149 311
23796 23665 170
567 25685 572
26392 21177 537
19705 26789 571
7794 29696 443
6835 13672 848
26278 7414 40
9924 7987 237
1408 16396 286
28684 5619 129
5502 5035 581
13154 25986 416
4662 8580 459
9214 2796 848
14842 16236 11
2313 28703 260
14707 6240 659
23292 333 973
12135 29298 65
14119 5393 368
9404 23405 48
9818 29826 15
13286 4728 631
22274 5281 776
16149 28187 116
27674 17902 576
26664 23849 89
5805 10745 33
26231 16135 141
19153 22755 281
1336 6235 47
24618 15930 706
10582 2489 703
7631 23939 90
20970 16431 123
19213 3350 990
26165 26469 171
26400 20294 876
6486 369 388
6665 13419 599
22854 3948 823
7238 11176 682
19075 19570 763
18599 8769 13
26998 27291 293
22225 17412 949
9117 24103 741
24834 14033 223
22150 25798 937
3791 15104 592
22163 24442 177
25531 12007 713
15396 667 485
29656 17466 436
14986 19807 154
6693 7592 630
16413 16209 519
10401 15280 589
15554 5943 886
24511 20156 40
26375 11868 813
10245 16752 28
17719 18402 200
3782 20219 247
10177 22950 328
27462 12115 981
24466 26162 571
7065 4159 798
2987 996 103
26975 7279 308
4214 3495 16
7024 19717 820
5121 29145 13
11587 21318 740
29584 25649 274
3717 28972 801
8932 9225 398
26724 13797 72
14741 2723 288
23090 21566 399
8245 7030 278
22181 6736 230
5095 4098 163
93 28427 276
26789 13296 746
2941 18603 424
8795 8392 176
29905 26990 549
23916 10664 211
29630 1222 293
28739 7421 232
19915 25020 676
16648 5677 88
14738 15828 592
9396 24464 30
1387 21302 285
11350 29528 179
28839 26221 799
13498 24184 649
9890 17126 350
17875 27998 536
491 25544 446
28155 1436 507
18990 1819 413
18245 28719 745
16974 6840 829
23749 28003 488
25941 21765 542
23057 8898 685
17481 28644 672
20550 19350 171
471 7708 653
10083 19516 282
3311 20053 581
3852 22383 198
9483 24582 649
20791 19302 552
6199 16936 315
14375 23568 649
2609 2282 170
21649 29736 696
16830 17576 905
16740 10413 293
28105 22427 557
13828 8875 917
26977 28627 845
3128 5758 809
25630 618 965
22472 19014 554
13335 28151 79
559 15109 12
2737 13085 939
3434 11158 309
3428 23575 892
27386 17858 876
14523 10171 449
17607 22842 66
15541 29316 927
13920 4708 671
25866 2050 636
22284 17811 74
18290 5098 573
12113 15660 416
28810 29105 409
21941 24643 477
11152 24253 487
23861 13999 884
29068 12422 833
10570 27421 166
28062 26949 278
23435 15143 957
14821 23560 464
5167 22002 335
4593 27149 930
175 3534 894
5841 1911 634
15280 28118 29
25272 22541 259
13933 26614 777
11125 13251 150
10672 19198 444
27305 1950 804
1579 6428 134
12530 25628 504
372 21575 342
18377 21241 149
23737 24600 948
4516 26650 722
11349 8131 256
26898 10068 224
19089 20047 973
15085 94 890
29550 3410 870
6807 9736 662
17029 19419 13
16263 8924 42
14710 7326 552
2047 26766 307
12789 22252 635
18821 13501 932
10794 9475 629
25766 17939 79
26568 553 59
29272 29261 580
25148 15894 255
27009 7467 246
17578 19844 747
7817 9141 571
4571 8024 463
21353 8845 907
10051 425 213
22654 4290 33
19055 19765 2
10427 15608 640
13398 7773 909
24836 5461 851
18180 3686 331
1949 23856 249
19430 28942 747
11818 24038 813
28839 5418 756
16030 16274 362
17865 3023 595
28891 19778 753
22172 25471 616
28509 9820 429
27076 27458 995
27572 19712 257
19357 14149 659
29479 10261 849
22594 4706 988
12246 29203 225
14614 28067 59
25898 15818 319
24834 12953 581
12179 6132 1
29308 1214 976
1323 24139 487
16944 5831 380
27922 16637 369
14304 17273 571
16989 14189 923
27722 6055 598
27804 20927 830
28698 11009 611
14579 12526 234
2659 7110 50
12623 14531 964
28606 19189 821
10957 2511 56
19736 5750 33
24731 25830 100
893 17146 629
9278 7879 195
13309 20652 928
28889 17381 849
27300 28917 936
24733 9354 657
26592 28563 57
26973 15152 245
19816 4670 340
21487 21281 833
26455 15090 671
21189 9121 633
11921 19226 890
17076 23635 431
7388 23425 417
26489 8782 997
6963 6361 179
17695 19599 500
19363 1518 977
9628 27388 204
18464 23123 249
9428 4173 812
12864 24466 685
22609 28630 476
8704 8906 511
10141 16260 986
24731 10092 693
23949 26456 700
25638 29478 364
18301 25711 338
25845 11342 606
19925 21768 447
19271 27745 707
28881 25870 565
19094 19729 182
19233 29785 673
24646 27081 534
21241 26351 34
15643 26661 473
14476 29269 759
26669 10492 837
6373 4622 730
11611 13779 156
26575 21428 484
2160 15801 330
15750 4133 909
1998 23140 968
26949 15730 560
3227 7970 239
10382 17831 348
26946 25297 73
8773 26496 427
26266 24677 706
18714 10966 607
13250 13293 192
19749 22735 4
5796 13219 407
10403 10461 672
8137 2482 789
4251 5582 91
14040 26972 590
15779 14932 623
6476 4314 929
18032 21117 509
1080 19372 679
28934 5377 223
10121 9550 219
16033 4161 129
20712 18677 891
4905 6417 8
20754 10376 713
4919 11791 806
29070 8715 317
17097 166 230
18980 3991 410
12928 12890 976
10224 15942 897
6644 19977 619
22676 26906 602
14138 14089 11
5692 21649 996
4445 9351 777
22729 11103 325
29689 27639 263
26958 15960 461
10620 23339 243
26075 16126 343
28613 6548 397
7094 6764 465
1901 23219 356
20386 2429 948
26585 18894 808
23221 7375 445
2822 18929 575
1344 20449 811
21643 23857 735
370 27355 464
5272 20640 672
5374 21634 256
21512 12139 994
24255 25990 262
23597 28955 931
3993 18280 986
24854 25409 883
29868 6837 645
15253 17865 237
9822 10948 146
8674 27330 256
8261 6373 961
28974 10843 487
1365 23916 958
6913 26049 390
13324 26989 915
18109 14459 514
7473 24349 973
953 18886 808
24617 11894 578
7760 1171 951
25118 23896 868
2519 17111 968
3656 9772 712
14363 6004 14
21669 8020 360
20027 25327 932
16621 4836 880
9653 10776 154
7714 6136 956
16345 11738 61
21267 8983 374
28550 5613 866
12872 2195 93
4858 27284 756
10127 18020 520
18429 19813 219
27309 28485 4
11539 14115 582
28557 28968 843
24125 19408 565
5829 14650 805
15495 22307 338
10054 8833 130
23953 7057 811
21976 22497 414
11226 5677 296
17809 15113 154
23867 19995 735
8325 29976 449
17487 6170 869
29715 1572 897
24053 11360 565
29113 27862 461
6169 17441 516
24069 3988 169
11523 11805 606
6313 29334 338
7222 2911 647
21763 24686 463
5107 9488 688
28917 17653 108
8752 19277 982
1538 26749 185
6541 1816 972
27809 996 954
25769 7999 470
241 6705 544
21312 4929 585
12879 2456 983
13047 2661 214
10100 22684 866
21926 28334 783
21977 396 873
18383 13733 111
3108 1495 90
2505 329 182
23151 24624 544
27065 6800 354
24254 140 340
12428 11958 832
20402 20213 233
10581 22519 590
29965 12715 643
9207 3173 980
21895 9848 323
17273 18305 634
20886 2292 254
28809 2934 308
9609 5134 850
4867 1435 79
22842 21373 771
12488 13557 569
26840 10149 515
29881 13646 714
27960 7734 66
5143 19256 374
20398 10971 647
320 29473 673
4404 22899 62
12520 19303 875
15719 11008 107
24324 11279 116
13919 25268 359
1500 694 443
10227 15356 494
16906 15276 406
19202 29515 379
8882 12881 792
25456 27311 965
6548 4279 675
26025 21088 486
13530 9564 181
11980 25648 460
14261 330 60
2412 13118 512
4092 15973 459
6401 6422 390
6561 23796 937
28945 28072 310
16958 9774 976
14808 4655 447
15304 15643 999
18486 10605 227
23894 28607 558
15783 29926 624
12026 23109 570
9018 23355 416
24966 29299 136
27276 20007 99
6920 20537 469
4841 15638 810
13363 13166 2
3711 13130 63
13136 1076 183
15493 14436 132
12019 2034 241
10922 22217 862
19441 8463 696
23879 25599 4
19436 13972 433
9113 25905 29
13764 10769 700
17716 1457 538
19202 8565 70
15746 9841 852
25977 17733 471
858 11228 278
18729 7893 332
15886 12260 870
14567 13319 298
20728 11986 145
27426 13492 219
14059 25216 35
17242 26890 813
24854 12889 264
18439 2072 477
18349 4962 924
22660 12844 814
24409 20412 492
23233 20506 306
13205 18155 359
12946 25165 672
29706 20148 605
12382 14317 247
28761 1612 44
29609 1771 800
17362 4007 456
28567 16145 626
2627 15671 895
25615 29355 324
27152 24792 590
14359 12053 729
25751 28637 56
18701 1931 589
8375 2614 903
5819 11749 307
23146 22405 783
18783 7391 726
10955 9646 567
2155 850 526
4513 27181 171
23554 28551 149
28056 13991 192
18439 22430 555
15333 17256 172
19342 25447 570
1265 28821 160
16936 8109 216
13483 14072 335
6616 21416 37
11796 23075 549
6270 20340 916
23438 10430 595
12085 24315 973
7912 20180 806
12871 9823 648
21867 15135 978
7713 24971 374
3926 24083 227
6325 14569 260
21395 10016 26
15097 27938 43
5800 3224 304
17900 29019 368
20873 13641 637
13384 27087 61
23693 15546 382
28451 12221 844
5384 18488 982
22403 6431 298
16186 11871 10
9517 17324 265
14407 18720 204
13685 7779 409
12096 12070 346
21281 22239 26
1287 6725 771
14707 9185 261
5810 3252 205
23571 6296 29
10948 27897 353
15902 13463 320
24742 14039 467
15853 9562 143
10372 18634 95
23071 18349 466
23518 26795 85
5682 16273 919
7351 22162 993
25195 10893 874
15643 21788 574
25255 5995 257
29106 20449 112
22284 15528 780
4153 19455 858
8767 19459 406
5013 17041 565
11766 25309 324
14246 14682 237
1322 18909 153
19419 4483 760
13390 7788 138
26913 16462 784
26535 5044 445
26964 786 155
15801 27600 23
25265 15811 967
27517 10967 350
26011 842 864
11639 24030 447
223 2231 534
10323 925 6
22472 15677 370
3995 18609 302
12123 28260 358
783 26074 217
24533 20653 499
27866 18616 120
26915 15980 195
22187 20403 298
10681 26316 793
1731 21512 756
13288 14344 16
3867 11725 943
8470 6597 358
21636 8015 568
7736 27891 276
20717 4430 195
8008 6560 672
18276 11237 915
28027 5443 126
11033 12322 387
13373 29153 623
24520 5357 535
22660 10006 911
28429 18916 955
29900 14876 406
13635 23330 494
13578 26225 504
2175 6910 929
7552 26984 67
14843 21683 167
6911 22424 60
16259 23168 65
26610 28297 354
5114 5134 344
19617 17608 727
28657 26349 979
13626 22960 334
22116 17248 78
21881 21183 127
20899 7584 395
22605 6955 745
2671 23650 499
27009 6034 537
15480 9594 96
12539 17580 863
17413 985 151
1709 3806 127
4403 18182 223
13083 28960 526
13680 4316 858
4150 21220 169
1169 923 680
7132 13150 353
6597 22844 953
13636 11990 193
25413 26341 817
18123 11742 614
2947 18132 47
12988 14725 940
17301 12835 681
20550 15112 419
18390 21002 566
11736 8157 774
13630 4695 960
29238 27638 704
1819 2534 134
6665 18175 773
12780 1829 558
22610 3055 713
3503 12355 357
357 19054 489
4796 24160 881
28223 26097 491
29259 20336 375
6089 21590 282
13660 12814 475
37 7751 305
20139 11342 840
29509 25208 290
4796 5481 274
28169 18281 895
16402 27021 432
26025 10478 644
27358 12521 849
11523 28320 159
4169 5794 495
813 19771 510
9064 29494 888
27719 18061 402
26350 28746 465
23596 24323 347
27267 1209 440
27025 17735 546
2721 24880 427
17666 19512 444
14267 24281 274
20035 2087 861
745 14504 79
15104 248 624
18047 7488 528
22633 20455 172
13873 2202 684
15836 21597 433
29691 3090 28
6475 22672 941
5263 14918 682
21059 5024 90
15624 6803 287
17316 16079 254
4380 6505 892
6668 6259 189
2632 6017 965
8059 2120 819
23291 27168 710
29031 13388 761
20067 16058 927
5589 9291 601
27934 28179 673
20164 10529 749
4951 28246 856
7251 19066 668
24179 24785 557
24677 15191 30
13307 21901 789
15106 6834 190
13618 9047 479
7232 3541 919
7907 15269 191
12696 21792 465
5885 7202 683
21222 1519 569
7032 25567 379
14372 12675 295
116 13454 356
15897 5780 120
29524 27467 707
9420 37 440
1596 4742 969
23796 25052 425
2187 14035 190
23122 27867 628
16668 473 970
23575 26266 97
14121 28807 46
15579 24652 841
27053 5722 324
15645 3472 424
2042 3417 929
25074 18826 127
10790 19587 408
12019 26759 414
6949 19667 474
12767 20852 274
21839 472 387
10529 18515 220
2430 1953 992
7272 24507 448
12105 21906 554
10088 1654 590
3118 18209 959
17789 25569 428
4074 20019 636
11846 26639 359
404 23941 349
28860 26169 90
5351 18582 844
25299 22308 325
20281 9738 320
6649 28510 372
11563 4944 815
27360 13166 751
18524 19649 823
12062 23686 236
18765 564 379
12133 17400 525
14024 14755 566
20831 18632 474
29589 26990 857
26053 10049 463
20750 7930 318
28368 24839 1
9091 24665 724
23762 24850 249
14785 19355 860
18660 18241 821
15672 17682 42
6938 27685 309
26969 19716 529
6307 118 72
20579 3672 659
12247 21828 393
20809 23552 194
29354 22702 629
29024 25523 487
15015 22437 906
8292 7138 664
13804 20103 916
79 17390 565
7901 23358 833
25269 1730 170
24829 18272 856
23214 17390 586
18843 5596 693
3519 29465 42
23740 29858 469
15643 8709 294
10426 20479 602
25334 4242 638
2561 23478 734
14972 18835 453
28362 29693 104
27588 19221 544
23116 17057 142
21214 28997 356
24753 21425 847
5228 27119 736
21375 1191 949
19523 22603 171
13609 6595 617
7952 14600 864
10686 4658 397
6068 10347 674
24747 28248 344
22740 20217 576
9917 15607 454
10869 20308 743
7301 17152 51
3749 3468 691
6487 14292 719
12265 18153 503
27966 6549 275
5315 28863 625
8810 7712 213
6693 8282 906
6858 14468 34
464 16272 615
29166 25485 145
15229 1314 68
18784 12915 694
17496 174 276
3023 10302 373
7280 20060 817
15127 15936 570
20000 297 198
28035 1899 591
415 12024 377
4861 27282 111
3416 28937 580
22374 27739 962
27722 12820 373
6476 26165 929
24665 15955 141
7836 29879 649
4675 10012 657
24691 1056 236
13523 21690 617
28191 9073 557
22392 28531 698
8298 27801 561
11619 22164 86
10007 598 865
25532 3316 121
17081 8575 291
1926 19866 118
10786 16809 572
9462 25875 192
16179 2236 487
8508 15015 830
4952 18450 126
10128 14686 693
4619 13730 787
24591 18315 26
12090 21277 415
9715 8793 373
28271 18177 710
18194 16457 391
23127 22309 972
22868 15253 35
5451 12860 721
10384 5649 546
15113 9777 739
26354 25162 345
19889 20603 652
19197 24773 488
3444 116 402
4573 19503 301
6154 29971 172
21919 20136 429
18550 24388 795
11816 23111 208
29509 6130 900
1586 17368 648
22311 10549 771
9402 10946 220
29992 6406 369
25537 20027 679
7969 23888 491
11601 10112 116
3495 6120 227
2195 5068 655
6752 26813 701
22277 23259 568
6255 17048 640
28682 12045 31
3743 7586 315
25176 12574 568
14899 9299 299
17790 21659 453
29610 1719 333
9017 17666 753
10993 20218 901
22430 17525 313
16524 2244 362
6413 14747 38
3017 20347 195
18971 16296 481
7455 19741 353
27083 1671 177
25478 1696 337
9051 19747 956
8632 15287 760
1151 20351 618
4615 1112 692
8254 5472 163
28408 29951 44
16877 19255 7
26897 5032 6
22967 16494 941
3841 2960 570
25958 13314 373
24714 9521 590
5466 5364 274
20512 13396 742
2645 11764 965
27419 14239 326
9601 18192 266
10717 10836 338
15112 10274 411
24522 8139 577
20177 20680 391
13859 10588 770
1178 25539 59
17386 20453 492
96 10389 696
22118 16049 877
29554 20867 125
2415 15753 821
5139 10646 912
11641 17761 318
10333 27986 795
14689 29620 457
29217 9005 207
7757 29085 84
11288 11475 296
27348 24430 258
4129 10837 398
8736 11860 110
2652 19142 635
18785 15929 313
4338 11211 600
23030 28617 611
25093 29604 683
2276 27879 304
28877 1447 87
3227 23547 9
20963 9961 102
20434 7976 692
28772 23045 845
15808 23679 180
29433 20497 397
18385 17451 177
20821 27361 429
23883 413 802
18231 8457 890
2910 27510 806
24419 27141 41
14022 15945 605
25963 1574 373
27989 16338 26
24129 19385 21
11236 23165 233
13521 18357 539
26944 4237 270
26001 7025 324
6561 12088 598
2941 23781 633
14328 21626 77
4551 26940 801
13523 5144 279
13456 5163 359
8214 20959 411
6571 7160 953
25161 1340 452
24072 7463 560
11035 24054 98
25202 6059 943
8039 28533 614
9014 16684 528
7478 22168 434
17828 3198 639
4122 21607 577
15131 28965 583
9091 23418 961
6066 4731 775
15054 340 535
5694 10810 358
18 23559 537
22528 16945 827
4711 27378 138
9848 20893 271
23312 24879 466
28320 17918 33
26877 27356 153
27886 27729 434
19906 9998 896
13536 22268 748
4572 15825 639
19635 25245 45
16727 14425 94
6597 12637 804
27249 5494 217
1694 16706 76
2659 5209 962
7143 19954 126
12569 10114 135
14738 16085 770
8308 26626 91
2848 1818 672
14023 25354 20
1746 22939 278
27476 24592 793
2551 4795 888
1916 12421 1
27257 21105 745
13940 7224 188
15148 27460 549
20520 7190 959
25109 27801 446
1635 5051 623
3333 12086 830
161 6817 732
10911 15383 867
8802 6076 726
16986 4991 618
26289 21177 487
16225 27930 680
24725 11744 694
12846 18467 752
25386 5080 279
1492 12061 510
23262 22366 644
3808 8353 288
15211 22090 474
11287 9434 393
24097 6538 480
2794 13431 81
29836 20826 202
13087 26042 105
3548 27046 331
13565 9215 788
24018 20728 116
334 13708 182
21478 26594 783
7319 22243 432
9662 11310 355
26325 11162 754
26397 22995 271
19719 7071 392
25919 29171 651
23087 22547 547
18830 20143 847
23144 14865 194
9692 10614 218
18458 9593 464
29916 22157 317
26871 26 898
10864 16094 764
19083 23685 348
16918 17257 103
7627 19011 206
9505 20348 630
3660 17479 721
20057 1918 759
18864 14827 579
19504 985 186
14562 46 488
17970 8641 21
4439 1489 608
15766 12013 933
24440 26232 382
10388 21344 795
22563 19860 785
6817 17346 838
3120 273 552
1924 11847 503
10185 8890 943
23382 10871 889
15503 931 434
14719 26099 860
4463 72 854
17783 17612 610
10347 28300 692
25669 6463 538
19096 26981 895
29690 21118 629
21708 27380 391
26368 13278 447
23051 5569 743
10869 29799 165
7179 7122 919
949 16281 878
200 10946 352
7154 28269 468
18208 20901 937
14748 14000 399
6916 2621 990
19926 24342 915
11151 3321 478
10076 1490 647
12240 12871 869
27530 12188 650
5408 22323 440
5614 15153 154
14013 4317 377
13192 13427 546
15186 10790 573
13792 18784 358
18265 26318 157
5890 27290 513
793 19123 938
25141 13086 994
28553 2644 240
11755 10516 654
28079 8194 554
3516 1578 566
17300 25631 205
8078 26524 965
22521 14354 767
6385 20429 253
28364 28368 939
23136 1287 925
24775 16505 280
2046 9072 312
3226 7184 189
27785 4742 608
24841 10348 900
10040 23599 453
800 3930 49
11121 10420 35
7487 29043 893
11231 17160 808
17429 24450 550
10121 16359 336
10590 12378 912
10010 25856 240
10641 12890 954
24942 25113 184
29118 7713 301
20959 24908 302
26891 8076 178
1544 23448 644
6046 16239 906
22791 15836 641
25263 25137 303
11326 5196 485
10012 13925 749
27942 22973 350
703 3749 301
26704 10669 34
7814 20109 433
3801 11442 30
9020 161 20
25598 29886 699
326 19852 960
7801 25945 247
28297 7837 620
9959 26117 372
29324 17534 914
10121 15205 504
2336 10979 733
16102 8399 44
27429 19534 133
9031 17831 191
20491 12695 245
16171 9407 782
2132 1318 150
28422 22848 582
15359 8867 894
8018 9305 47
18389 23098 735
11091 3686 62
9195 1136 407
14968 10021 738
6980 25109 1
16555 27320 234
28553 12282 473
3812 27536 160
16006 29583 996
20067 19931 151
9420 27038 885
5315 2470 308
27547 15956 324
13610 26365 2
29412 8974 436
29852 11718 494
20702 26501 894
5410 11724 371
28926 6592 847
6110 27174 278
8736 11520 540
8046 10423 64
24038 28269 464
15176 2111 324
23042 11386 5
19981 21797 565
19698 2652 73
25070 18815 981
8679 2152 601
28383 8724 635
13484 22631 556
12479 12678 624
4075 28142 747
27848 14933 214
16485 12104 610
27144 19579 914
3359 28313 448
28329 4143 364
3389 18877 936
10732 18566 623
28819 7583 423
26708 27515 11
16077 6861 262
14669 17406 66
9444 5117 97
5478 27010 857
16651 2380 154
16345 21714 671
4956 7659 123
25866 22506 610
25238 12576 205
9421 8378 351
17836 29824 130
11829 29567 270
19287 7705 884
26750 10328 380
27891 9311 190
23869 19062 241
502 9951 754
9086 9338 429
23809 19472 202
22668 12091 15
3125 28045 443
22715 21744 916
22443 13259 851
14265 3449 879
23527 17324 388
4900 23254 869
18645 13652 958
402 15490 15
29390 28097 554
17055 12538 938
26275 21154 567
8185 24952 513
29840 21046 105
24733 11151 558
24523 7605 200
21633 6501 444
28362 14404 822
26336 14513 478
4607 6115 399
19402 14921 510
25767 7362 790
20759 13286 655
23544 28858 755
29817 20196 257
17998 21889 616
17489 10808 67
28196 3813 848
15626 5931 611
9576 29571 376
1221 11458 894
6385 8994 144
18464 25066 803
27068 14372 349
10905 24326 880
29833 26517 733
6744 13177 720
6646 9994 174
23736 16575 964
4983 10 268
5926 17395 940
4394 15186 177
22401 14459 753
4799 1287 604
7259 15001 553
9547 10211 380
8131 10588 766
1724 8953 104
10362 26190 3
20623 14111 536
28901 22431 747
20160 25861 345
25480 1479 622
2379 10529 834
14889 1972 917
29162 22853 584
26224 15601 321
23822 2960 731
17803 28487 363
19829 12774 170
28992 14168 844
25612 23961 323
20102 13649 343
17870 24805 644
9240 13889 237
29860 12218 209
25830 29145 295
26156 26127 185
8167 24442 713
21422 28328 230
12672 8365 365
3842 17819 906
13310 10648 210
3720 21109 868
27746 29697 371
6190 21133 349
28802 24783 108
17716 2888 889
10077 12616 411
24918 9780 306
10492 17803 772
11255 27865 608
23346 17526 734
14200 19033 226
27361 18938 579
14093 924 169
16811 10035 443
26684 8068 504
28676 2673 687
18151 11507 751
8123 23406 362
12841 27113 364
10808 25032 418
7032 25667 347
20094 5369 18
5862 4336 246
29412 11416 952
2532 24540 479
16087 1520 56
26920 25187 480
15445 18024 147
14924 18080 886
21294 28734 440
20470 19841 655
18553 1709 433
19445 5291 370
19215 23772 449
20885 16432 795
15748 9392 161
26302 23442 334
9541 18080 485
22598 3482 325
14043 12861 385
14103 5624 102
8508 29077 742
8497 16207 713
26622 10041 555
14671 20538 923
8826 6093 431
28380 11548 196
27673 24348 970
8341 29455 179
15337 19844 513
23596 6030 671
5338 3262 128
15674 28898 264
27063 18604 125
18202 6234 213
15024 27012 345
23397 16475 527
23229 24445 714
8852 25270 689
21303 13568 317
16943 11915 605
18731 18403 63
1762 27118 860
3865 10613 73
28871 8977 413
18797 4106 995
14083 24419 574
10562 12622 312
17741 24791 413
28972 4909 179
24479 29069 938
14696 11731 401
25910 23934 994
22330 23831 500
4604 2452 351
5548 12060 809
18679 22134 824
1221 23242 426
21670 17188 363
20143 26084 18
5406 13716 199
21252 29975 688
6020 23938 347
15495 5947 307
25879 20522 490
16134 1163 377
473 5730 833
28420 27833 674
1616 17262 705
22551 6706 870
10370 27846 598
20011 15193 903
21163 13485 914
23640 6862 608
5358 22979 584
21575 398 59
28936 14195 172
18138 6154 905
17056 740 421
13032 24413 402
7354 19857 956
28554 1426 726
25483 15913 480
22878 15039 540
26992 7201 244
3946 23834 88
16907 1037 395
2358 25997 602
28821 28261 432
9686 24227 868
17187 26006 502
8903 11611 839
9091 22692 746
4984 26286 39
24921 26174 447
7511 22167 373
13083 5252 737
24851 18578 221
23107 4123 955
27506 1435 890
4791 10508 814
29969 14590 316
769 70 860
14028 7985 594
23966 27655 639
28317 13130 421
11442 22626 452
27070 7750 479
239 24627 39
6664 14661 427
7771 3242 784
9701 5471 117
7917 29443 397
10518 10911 327
26142 19956 776
10587 20728 523
1670 14880 260
7894 27922 938
4792 1711 670
22941 25948 48
16210 16112 676
18439 21424 772
3769 28345 829
2021 15762 138
22250 9492 438
3877 8436 142
16987 27208 740
4606 11996 517
19177 956 622
21093 4468 611
10192 80 915
12874 5732 409
351 24619 404
22526 25815 660
2856 8025 541
4378 3915 853
8345 16510 275
17348 28910 116
26797 25731 575
1070 23581 115
25341 18955 390
764 4016 928
16862 27479 984
13188 25766 460
12053 15186 231
6696 20723 148
7972 12854 441
8306 24568 157
21118 4752 666
8860 539 602
25936 12942 711
9429 14485 802
16981 12820 778
21452 29622 356
18407 28968 887
7901 11042 242
3596 7095 338
12718 29080 692
28509 27469 865
4432 4387 243
11904 13311 55
28719 28997 1
18480 26082 840
6066 22883 272
1512 4867 172
21781 17164 397
28582 28800 881
17902 25596 760
1883 21923 310
27699 4615 278
15102 18614 162
1788 3309 681
22852 1589 513
24128 3618 434
27970 5250 749
12762 966 668
10592 1834 18
613 22854 630
19727 17922 117
12796 26801 251
12559 24532 303
24045 26056 519
17383 15007 695
16267 14122 296
24688 501 563
22268 25344 570
15948 7661 477
5047 14875 480
3244 20322 31
3048 5653 738
3875 9035 103
19136 6610 368
8156 21244 781
23405 25127 281
13663 23574 883
28528 26311 982
58 14083 103
12798 12921 377
4565 6761 455
15758 26916 171
22622 23754 904
10861 3710 994
6440 1270 604
4603 23784 48
28789 18718 448
23116 21262 247
27322 3150 910
512 13422 367
12080 8811 454
7313 8528 484
22548 9312 697
11601 8517 771
152 14194 993
4800 9174 715
13768 7888 134
16198 27301 43
13189 11179 688
10477 346 639
635 4153 654
18889 11867 571
23232 3948 243
14933 7454 680
11747 25056 142
28136 10436 251
27924 16092 145
5826 19374 913
11023 20712 683
17669 27557 971
29251 19867 555
25724 24792 102
13844 23264 784
18723 1933 487
26335 15576 209
14349 23057 90
12657 9122 622
27611 28744 784
13406 1585 451
606 24595 400
8797 26341 244
28352 973 188
18006 1643 299
7317 22043 88
19777 28229 871
15135 13696 847
467 17601 705
25838 4733 868
11220 23983 787
19363 19279 866
26322 10929 407
11309 29302 987
17560 29150 35
8466 8544 931
29513 16986 455
18647 18550 806
19753 3316 845
25103 2678 564
27632 6101 553
15926 25555 794
7484 2469 977
17490 2666 368
8424 8797 409
23427 13718 893
13873 27474 28
878 23303 187
4920 17149 817
5750 27798 124
16383 24324 960
14417 16635 154
18091 21990 691
14845 11665 436
7559 26575 934
3230 21202 76
9349 21419 377
19789 18152 856
24721 24469 351
11229 6291 71
1327 27166 928
24452 28588 475
2291 2677 215
12110 9080 133
8871 16230 810
27837 9468 310
10038 24542 955
5493 29837 368
19650 23998 595
25561 2400 524
4462 27454 181
27656 24251 292
14116 27109 783
29027 116 91
24417 14198 221
20899 10437 924
5667 19240 762
28026 27877 958
9438 24735 754
27313 19262 528
11835 8555 312
23044 6000 929
21447 20357 849
2872 16538 813
1953 6881 86
24802 5536 93
20673 24038 269
19681 19457 285
358 25351 112
22099 2496 477
7198 16153 104
14359 24983 657
26612 22246 365
18120 22233 223
20878 12526 457
28226 9032 525
6711 29126 48
20252 11640 39
19825 27225 79
23764 29479 923
10849 19791 808
1379 10751 593
19830 5192 525
830 21397 962
28722 29104 674
27612 18170 942
10564 19654 126
16924 7026 623
6503 5621 621
20866 28043 392
2735 6935 634
21919 5085 77
28649 6904 182
4212 6300 537
2162 8277 314
3533 21726 882
22723 12738 773
25713 15886 689
463 16322 481
23175 12117 386
11737 25780 528
27087 28323 303
6395 241 891
23961 9955 823
14953 29651 863
15074 399 850
27065 19866 658
21510 9471 497
6036 8814 872
17024 4208 112
22592 25146 327
21142 13301 27
7418 22007 684
12706 5517 894
12964 21969 430
22361 27599 414
18406 26509 665
11473 9903 985
6342 21520 733
10198 8937 610
17765 2773 513
26614 13611 877
870 10263 54
25228 4809 250
27018 13831 211
29228 27190 252
22233 29605 938
10069 1989 639
4544 9427 569
22406 11238 897
208 14751 905
10875 12043 720
9706 1310 482
2812 1038 493
3692 14360 728
28179 26503 177
11935 6566 560
15112 28314 978
13018 10320 370
29605 10508 353
4271 8133 636
23818 9646 199
22158 10812 106
26622 12455 576
19029 27355 33
28615 2980 427
7464 29696 87
23106 8111 265
4635 2469 262
8732 21706 133
18338 17467 569
1477 5104 724
29005 28571 112
20595 22634 979
3612 20857 731
12477 4214 703
22127 529 784
4388 16974 113
8006 9245 26
15528 11353 62
9137 29108 504
18020 16086 813
10706 1122 53
22765 26293 481
20028 15044 660
29450 12625 177
12060 7913 654
4554 22122 485
23257 25416 503
6767 28271 121
4245 6954 784
9732 7323 405
26866 2896 523
29531 26972 941
27560 26961 152
7829 17327 91
25829 26780 645
27117 28297 80
11814 14550 793
13286 5206 977
26008 23437 336
23641 23312 962
13354 3892 955
1029 19423 197
2493 18504 609
11966 10164 387
15756 4586 99
6353 7269 173
15304 13787 115
15172 27109 666
24800 731 905
713 20637 519
23627 15393 364
19133 2776 349
4373 24750 846
18032 24864 868
3356 951 815
3024 12454 217
10386 18941 269
4779 2752 749
19709 19717 724
8837 22987 373
21074 15594 500
7381 21425 582
23821 12876 781
12790 14378 250
5019 14979 690
20050 15001 91
23938 22472 994
16989 23271 325
27027 28362 323
14316 28760 561
4259 5292 823
4734 20496 624
22281 9439 466
16736 14137 726
20771 11171 876
19929 24823 373
3533 21395 926
16671 26242 475
28710 13693 21
10732 27491 653
19272 25740 232
20738 24927 608
18807 3616 75
12272 7594 537
20236 25359 76
21646 18274 161
28948 28325 68
7190 8594 982
27068 4471 894
24498 26416 360
29967 7602 470
11010 14858 718
4030 12746 759
15902 28187 51
20841 23249 258
11640 21793 5
9696 24073 968
2446 25951 720
19437 26658 534
13263 28929 521
14782 24963 254
25695 29423 798
5393 5704 723
25072 25993 238
1002 13307 703
1608 18831 934
4463 5163 769
24264 15435 633
17222 26691 692
15525 21208 433
16255 24297 383
27387 14378 859
21203 9658 383
1825 17264 323
1314 29005 855
10501 27864 296
792 11072 942
11127 17006 953
26013 22418 369
7539 20397 344
20927 25888 177
6370 16083 871
19372 12581 903
26488 20161 30
17756 15978 977
2997 11187 61
9686 22471 402
18234 23802 360
25540 800 793
589 7582 819
23185 14267 635
2846 13860 382
27958 22619 410
28341 26768 554
9761 17985 940
26841 27007 126
7507 9312 57
175 4193 605
7901 20246 824
20715 3814 910
6853 17938 212
8983 26021 720
8282 1169 447
1777 6552 36
21032 29111 525
8089 12387 583
9705 1216 295
28276 13089 667
17246 8944 53
22568 22799 611
10638 10671 736
24621 19559 375
27839 6869 717
22297 334 833
1979 21734 470
26953 6795 227
22469 18894 441
24740 28904 939
2009 17364 725
16070 11393 433
19098 4405 694
24812 19048 690
25291 2349 720
5156 16458 506
8479 11109 182
25238 15276 4
24900 28393 138
25375 23658 646
28659 10811 177
17218 6235 219
27797 1950 561
15665 4764 142
17188 22341 478
18790 16718 551
5695 14786 759
2017 19952 671
19907 2486 619
19480 27996 541
8139 12672 275
20436 13567 42
7907 9505 657
6539 10721 351
20825 22902 784
28488 19561 419
8617 4892 979
13892 26670 654
308 20526 764
17364 27704 423
4680 9473 80
18204 13829 789
17178 6766 571
5785 5625 81
8481 2678 527
2780 5285 496
5613 22406 821
4258 29583 78
2187 24393 907
15404 26984 101
5304 23906 349
13205 9714 895
27411 26156 735
5531 19009 185
949 13626 948
4065 6153 311
10439 27714 659
2074 28450 150
19113 19305 462
26614 3166 526
13315 7457 344
22519 10906 204
4347 9814 587
1194 18802 165
3361 23099 641
19549 29926 398
17439 24038 728
29172 3995 91
28207 12381 610
22103 1011 974
13581 25625 127
19863 25358 312
15878 7523 765
12973 3880 259
28953 7714 652
9684 1706 200
25233 535 867
28408 28080 162
16500 12643 490
16726 19549 937
15961 29141 560
24208 5773 875
1801 3175 974
29982 6665 937
12554 5390 962
6575 25062 70
15475 20050 169
25112 6129 826
3198 12293 27
19601 26954 126
14271 16258 300
5933 12470 559
28682 16161 709
27058 2888 812
27709 9939 775
25128 23523 436
19168 7890 301
12712 6747 55
17267 18132 850
22107 14558 672
29402 8545 355
13832 8149 594
25131 7111 584
10631 13726 710
29069 9697 937
15736 18532 846
23135 3532 977
12841 20298 117
7655 29151 850
10745 16417 706
19265 14693 495
12444 3259 509
12626 24604 990
16707 29730 904
27535 19976 707
14548 27188 107
4180 24563 43
11878 9676 907
18269 28732 392
26980 29274 679
3616 21037 261
1180 1417 94
20441 22615 848
27803 29088 771
12398 550 977
1504 17679 765
19995 18841 527
7228 26144 606
13290 21856 110
29967 13803 938
16671 2310 261
26382 16011 250
24038 1838 678
20493 27576 473
24987 15361 911
20804 2595 555
15536 28691 284
22196 13440 53
28746 7329 920
9192 183 434
28956 23477 869
74 23438 911
3703 18559 516
12307 17638 872
11100 16255 988
28451 27825 76
3528 10259 309
12473 464 943
8119 27659 257
25090 8951 886
26895 27774 698
22402 1038 213
17322 22284 218
19488 5829 214
29062 11809 748
7740 24082 362
18681 11629 437
13873 13925 392
26114 17554 819
27106 10550 781
2750 17946 108
566 13599 439
20072 16392 441
15238 19017 649
2801 21130 602
12237 23057 267
16701 12094 797
13041 23850 134
28166 16149 293
7332 26766 464
19255 18502 922
28963 14791 253
12154 27118 340
7193 28493 418
13887 18110 985
28314 17116 924
21066 4964 219
8576 27082 53
12784 29283 445
29383 11240 787
478 26045 605
6818 26304 361
12819 16990 917
7941 15773 198
21665 3845 625
19374 13539 726
6995 24164 7
13714 25808 804
13160 5030 632
9598 27260 716
8993 13094 771
23534 28653 183
10942 24177 350
26958 21357 799
27660 16393 166
1504 20838 125
1814 6676 407
28361 25092 97
16013 20309 680
3647 6147 622
21084 28742 700
7087 10709 976
25774 5089 792
2016 814 879
21449 3647 238
4624 7466 97
9844 23165 550
10660 25065 983
424 12658 754
3274 24835 349
8438 3756 73
18781 29956 648
10351 29733 646
26759 13446 916
13680 7708 562
22482 16390 216
14799 11863 619
12536 18150 415
4916 12875 465
2974 203 536
19994 2026 667
11337 24271 154
17500 12036 791
5142 10607 693
20143 9570 925
19084 20421 497
4077 6665 580
22374 11183 277
22299 19809 398
14005 2027 706
5397 14221 681
23577 3014 548
12830 13723 42
27977 18474 260
2531 25846 632
24393 23535 656
17202 17295 260
20775 15949 983
6962 1113 539
25463 4658 185
19337 5803 770
1659 25228 252
15918 7013 219
13390 29532 342
10552 17323 429
11056 20081 525
18907 25953 898
7474 23077 740
13717 5106 208
11964 2941 608
29075 22189 258
22880 2242 504
478 12952 366
11704 7398 353
1819 11969 663
8196 8062 238
4624 1153 632
12 21597 398
25927 29927 891
16741 8223 602
8832 26339 903
7969 25025 534
7661 28348 905
14872 27116 328
25150 12801 335
4304 17395 68
24681 5991 148
26662 17523 128
29559 22515 893
9335 24827 33
29337 10651 264
13695 17575 556
14801 7140 923
12361 5098 360
26694 14098 41
5031 5533 884
29388 21889 562
2059 689 326
11221 22959 867
16438 23653 594
23913 1868 111
19761 26109 482
9361 6233 890
24127 20128 154
6736 11831 880
6404 23570 353
24881 25720 924
11259 28945 172
17850 77 680
2451 1057 837
23236 2137 907
23644 23544 405
25024 7960 273
9485 8056 486
5740 20594 671
6996 26653 962
14162 2890 698
14326 26827 697
15119 1878 875
9373 28241 646
12690 18293 650
18477 12053 369
29323 635 718
19327 12201 6
19231 19638 204
5534 15736 587
27236 26026 997
19158 14337 332
19585 14358 908
22822 5100 687
6970 6949 631
1424 23211 257
2701 19052 384
23253 20602 219
12949 2384 466
11673 23052 671
28492 6408 618
2635 16335 122
20885 29180 92
29192 28118 197
562 22436 381
6735 1144 534
28907 6296 268
1739 6942 419
11865 16086 885
14590 27200 89
20945 8971 210
17583 7269 105
25416 29315 892
23784 19643 754
23321 20223 716
28905 18809 460
10342 14446 835
12392 27054 574
9935 23449 411
28448 2525 265
29195 7053 14
28432 17102 389
27680 27957 142
9754 4456 404
392 13735 355
16646 15073 366
7973 2644 797
28956 24351 27
26026 24188 260
27083 27011 86
27464 23754 152
10310 1261 438
13128 16112 475
12039 4186 93
8394 23263 368
26836 7172 138
23549 22471 222
7153 1590 217
17162 29445 446
26575 26278 959
27990 6315 907
23683 24396 103
7309 26249 44
19404 28099 999
16028 3328 621
27562 8487 623
3225 4824 641
25942 13286 624
18194 13423 7
6504 13180 160
2346 12686 1
8708 7267 483
5618 18114 696
10588 16382 532
18823 24187 899
26809 10961 629
12498 8869 816
1315 28039 821
29315 5792 957
4925 29533 86
13071 16620 611
19412 27101 120
8817 6665 949
22385 20702 417
28400 13835 444
6902 25926 857
6978 14821 401
25712 11371 403
26636 659 331
28985 8426 927
12695 20941 514
28666 2054 232
7200 549 994
9730 24924 681
26271 28757 68
10765 11360 770
20004 9192 692
24326 12064 305
27979 16731 913
14106 18422 699
8498 5085 751
12445 29611 800
164 12597 662
23082 29351 165
24804 16138 163
3521 18389 330
4231 2474 454
24381 8868 271
20738 27691 227
14244 1656 435
27503 29799 918
7214 10957 507
5035 26444 716
23831 23538 211
3945 25895 458
27366 7016 230
2912 17079 700
4155 25565 166
4228 11262 590
21661 26107 824
20740 10137 13
26762 12772 247
28586 5127 606
18641 1457 253
1823 22639 594
6763 23997 670
1721 6720 465
2346 29987 899
20955 2715 321
21107 8118 39
26647 24663 700
21021 19811 676
24410 23737 674
24949 13853 93
28190 1644 484
2592 633 630
26052 1641 39
13439 17088 174
4748 18563 894
10228 26934 330
28515 18367 780
7265 2294 521
13610 2903 170
16640 27781 714
24650 2540 496
26001 14793 254
16531 14264 341
4615 18789 774
16987 15241 516
26189 18492 469
598 16192 14
1636 26187 817
28997 24609 908
15438 29521 841
2818 10810 460
6117 25808 7
18068 10924 948
29480 27400 846
23591 21228 333
20426 19734 754
27148 29571 901
26570 3380 913
4043 20285 234
14955 24062 357
3625 5618 176
26882 29298 335
6211 20915 537
3350 3226 160
20522 16644 819
25109 24852 465
2473 27109 371
9476 29928 5
6919 19794 225
242 8358 550
17665 8182 184
24197 21490 715
24770 21991 278
14878 15104 993
16426 17188 399
21695 21529 217
27519 25159 420
3923 3689 909
825 25109 971
4941 6872 149
10155 27493 135
15706 25592 918
28528 20648 642
722 14690 982
27956 14263 16
8860 1350 913
23881 6640 751
28300 10253 286
1518 11819 696
4739 22400 791
22869 9584 43
23614 17037 972
8311 15680 379
67 471 751
27101 26590 111
23147 20394 545
1565 3617 407
29684 26861 218
18391 22413 869
10967 29053 538
13512 23474 573
5250 23231 458
15971 2127 648
17872 13682 709
13252 26627 31
4908 17222 949
20734 2330 193
12172 29811 159
24567 11534 427
10771 13343 790
18086 3665 740
25550 24164 477
19734 21973 383
21348 9850 229
12412 29474 554
8791 12286 402
21039 16764 85
6295 27396 272
9690 9570 247
20155 11972 105
17701 24931 377
16484 8664 850
13159 28800 23
14948 19935 27
10160 7204 729
24985 11321 723
16111 8302 941
466 28705 538
26416 10025 116
6847 20290 689
19371 11027 972
17093 23145 903
21318 4954 854
5301 15061 341
751 12005 930
12282 29620 177
15991 5459 595
9274 13830 953
13927 17707 954
21930 16428 472
8187 23964 881
12859 25534 344
24314 27899 512
20818 22549 345
3939 28714 52
2949 2944 606
4110 21339 194
3353 3740 226
19973 23173 700
7050 10906 714
5510 7660 797
11098 9725 169
7523 17876 257
19292 9525 345
3653 2823 438
8910 22508 296
18714 1752 930
20410 4414 102
7606 27519 979
11019 14042 707
6852 7579 898
23830 2092 750
12393 21453 561
25631 21064 813
2497 17934 588
18346 23045 992
7937 11145 382
4131 18945 792
4627 27614 289
26844 5856 381
8932 21324 673
6115 7319 67
14977 23831 848
5182 25114 732
18886 27256 1
12247 11141 881
9472 18739 645
20177 18174 890
2011 5322 628
27772 6732 920
2430 2651 428
12454 3123 496
20031 15960 130
26541 9992 791
24585 2671 287
18607 15593 541
21534 17023 80
2195 13101 988
25104 26023 479
4725 9657 125
27029 4203 393
21553 6623 740
985 28157 808
28254 28661 282
15368 26679 650
16711 8511 484
27778 20822 393
7827 1648 594
21714 24031 340
27928 18019 40
2806 6218 234
27218 3598 457
19958 17817 480
6011 7960 754
25453 1875 717
1698 17188 577
25214 27210 830
1191 27581 333
5603 13858 842
17907 4125 536
15625 15947 287
7795 4325 682
13766 23944 94
12517 1379 801
6262 29194 652
25130 3655 403
5637 7327 364
6500 10828 316
13637 29696 342
27972 27201 582
27560 13540 592
20340 28203 498
25374 6039 567
4546 3360 213
12144 2632 383
29552 23749 244
29265 4900 320
12437 25397 331
17318 3825 834
1632 14338 564
22379 9967 285
23977 17171 65
27713 6785 493
19219 28746 646
4355 28207 798
3527 27606 147
23812 24481 603
7508 23949 896
8465 16054 375
18285 24038 68
12751 18240 964
15767 24662 8
27440 22996 899
7931 9316 681
23437 6702 314
16486 25422 205
20252 747 988
13697 19099 92
26626 22375 720
19992 17971 24
14331 28225 750
18219 6785 64
26592 20368 44
12457 28613 84
16311 7152 565
19589 22088 285
25312 21848 262
14786 28677 140
20834 24693 715
13449 14664 812
4191 14926 809
24724 27392 940
27928 9521 983
944 7282 597
2731 22451 307
21788 1173 28
9445 3907 419
10691 17766 598
27304 13364 176
17238 18780 400
2667 25663 924
5349 25224 344
14603 1217 739
11325 11018 850
517 16706 560
16730 23415 893
18105 27559 727
3083 28226 516
22232 28439 978
6336 16136 764
2158 20278 530
2959 15365 169
20300 20953 593
27343 22588 384
3689 24156 403
6517 23006 908
29515 1436 435
1925 15145 541
29005 18666 958
3458 26400 19
19487 2148 884
18612 600 349
23027 22316 702
28955 23175 997
8053 7258 115
12258 7671 482
9523 15365 787
26823 6396 689
2469 5271 735
9885 5041 429
12820 26072 364
14056 6521 961
24203 5168 517
5715 29000 999
10206 6082 766
12292 3570 151
15208 2895 430
51 24331 957
4134 3420 229
26811 20635 935
25107 7562 679
26144 29005 209
26125 6650 611
10108 29927 725
13432 4633 296
18608 13552 767
1574 7442 495
14479 3323 224
26220 21173 209
5421 21780 381
1711 213 695
11527 4252 776
13043 6716 865
15548 11031 639
24469 29258 689
29848 6637 396
20770 4150 578
3554 12430 226
14618 21595 150
1695 14672 799
645 28309 666
5237 6903 231
21542 15808 120
8177 11640 147
14027 7435 643
8049 4395 530
21476 15715 54
25561 20270 542
18846 488 37
26740 28896 555
17191 12842 509
26724 14657 357
24606 25061 593
28851 27911 340
5842 5749 650
834 24155 518
9694 6192 113
1140 20688 405
5516 9976 629
4492 20856 682
8828 6828 831
24748 19248 325
4817 21840 800
22505 5993 315
16053 8510 372
16222 15467 810
25573 25718 969
26780 3159 267
17392 27975 250
15287 15487 147
13919 8879 91
12004 15898 69
8017 22586 268
26316 11641 795
11680 14908 188
17101 13403 223
19972 3315 4
6733 21904 16
13930 25721 786
27899 23312 736
15185 2194 437
2482 23579 869
9627 629 279
13355 13257 374
28013 10687 674
26828 21391 189
16988 24084 279
9960 5963 148
10849 14088 598
18080 21360 458
16551 29544 448
28879 28830 626
14244 5467 230
11710 23225 781
12662 22084 242
29317 8459 853
24469 22830 876
23266 19232 30
9116 22037 998
28387 13605 361
21417 20293 693
16879 21631 221
27772 21316 411
8481 2155 524
3841 9702 661
4179 14531 722
4411 23696 567
11994 14710 844
8136 27109 753
11289 25568 659
27429 25482 251
10954 29459 220
17429 9858 358
21179 23513 516
3350 17538 506
17856 16711 203
18956 22398 624
23977 11931 140
7237 10782 468
16639 20956 829
5958 29906 206
27396 10318 893
6595 21198 846
23985 8130 791
5555 27771 316
15435 20989 276
12386 17335 932
21202 23492 685
14064 2467 520
27138 24544 970
2998 14574 257
18816 16496 430
12507 2501 449
21624 1868 778
15574 11628 318
19772 9532 730
24618 5635 797
961 28125 44
8405 4893 282
14999 18326 130
23598 9004 27
27122 23763 545
22556 19327 681
28289 8280 562
26221 22782 520
20602 23721 920
10861 28364 951
19738 24300 59
5784 12871 829
3590 15156 465
19217 9113 663
15976 5565 251
24523 50 920
17905 24974 879
13196 12040 975
18114 26598 913
10328 6189 914
12889 28109 923
1666 22127 886
8478 24519 651
17492 21430 442
17871 4525 503
18981 15411 18
12945 15076 850
17426 20973 512
20275 24542 496
15863 7105 891
5677 11585 337
24650 24853 996
5753 14822 65
29817 8274 380
25107 7643 362
24202 29535 640
26305 19792 115
19719 9175 179
28869 1856 874
3298 4225 547
28414 16687 937
12825 13013 630
28339 11362 14
25318 27316 888
22736 28799 555
28855 2416 880
9718 10833 718
24421 15900 326
10503 2511 321
29843 23738 12
11312 10275 584
29281 13356 369
38 19044 258
14923 15493 66
4451 11349 368
29754 29643 681
22149 8409 773
27237 6325 344
20903 4840 462
1885 3750 857
22328 12297 945
22489 29547 387
24040 19990 769
17305 6233 875
29541 26732 56
23074 27805 702
25942 896 747
21458 11550 626
28325 19659 161
26437 15068 489
21211 10095 581
26457 27666 360
9650 18955 230
14562 4107 350
6619 24868 909
25802 12290 617
3385 24231 619
9868 16927 848
21458 20737 308
28036 18635 375
21408 12931 393
28923 7415 693
8659 12727 861
3852 27436 167
26000 19990 865
18631 7924 766
16077 6302 299
25110 16960 341
26754 6565 124
9412 16664 252
29852 26876 498
63 29966 372
3796 25983 811
21432 15291 469
3782 15875 760
4204 7382 648
24129 10765 563
25328 8100 807
24284 11495 957
24748 21126 767
27517 26476 899
8356 6057 532
18835 20621 882
4541 14195 245
28774 9061 897
13002 22496 943
29049 12989 670
9042 13084 47
2430 25647 57
24034 23537 399
23162 9065 415
29048 11616 547
3487 3842 471
17393 25688 241
5680 13573 495
19850 14658 318
6233 25881 752
5399 26301 226
10308 6502 452
27287 13192 358
12537 9040 476
21142 28797 853
27956 22846 420
9313 19184 233
28756 25340 135
12232 2947 674
5291 20893 592
29978 16496 900
1753 4770 96
6616 14722 120
12625 2327 521
29369 18051 993
7355 2789 593
26280 14514 100
5346 640 825
18674 7099 787
26972 1287 72
21602 15986 730
7507 11756 228
5596 19447 660
14064 26724 317
28444 26708 772
17117 234 974
9340 1897 226
14318 1879 973
22849 23916 673
28277 15235 166
4377 9136 509
10844 12315 742
1717 14850 95
3677 11985 843
26740 26776 268
10897 26801 645
1010 15136 748
20449 9845 86
18733 24416 224
22001 12534 76
14498 310 713
10536 2299 161
27831 22924 744
9395 17312 672
1986 20912 249
28536 8600 734
6306 27258 751
23819 7386 930
1963 11482 160
18885 1421 235
23450 23284 707
13322 8719 92
15808 1224 591
21305 12481 900
16430 24613 151
16634 1700 270
25369 561 383
23454 5931 2
14257 7728 556
23923 3445 281
13699 17115 492
27110 25100 178
3427 18862 411
363 12185 853
2671 13336 125
23709 20229 873
18280 14175 671
4534 17914 254
14721 8844 328
10749 5679 279
6601 16614 953
3454 5656 916
16927 28916 171
25678 24824 65
19516 17724 659
18064 14982 811
22309 21497 361
25906 25894 516
23859 6249 936
29088 18709 647
4950 12156 785
11364 28512 247
17992 20052 787
10421 12964 332
5491 27244 429
5588 19465 936
24848 7883 432
15993 15043 142
2958 412 754
19383 19039 57
5377 19590 585
29486 9546 517
26369 14249 531
14055 23521 68
25996 24028 610
22259 800 379
26059 14458 11
23544 29416 181
28069 11122 767
5975 20778 128
24771 20323 474
1906 12350 480
3952 27382 636
6717 4502 821
21560 28756 272
6800 5796 290
4882 11163 956
3666 8383 1000
23711 25727 416
12890 13897 716
22347 15605 126
5769 13694 440
5386 8372 759
2387 18839 541
5841 18244 109
9453 24630 602
4867 14293 637
18065 4437 47
10961 27139 863
8457 3629 971
7292 3334 346
27426 18267 246
23774 14944 657
2485 21498 535
8916 10880 109
22062 1360 300
20435 16706 441
1042 21678 809
27085 23408 553
28676 23872 256
17447 16095 588
1683 29883 131
17658 29550 626
23952 13114 863
10219 23430 777
9109 7326 544
4762 293 951
11364 16752 364
9477 11595 549
20155 25817 465
29765 22544 863
17176 14261 413
25808 20815 880
14879 24371 285
18158 28668 201
29460 9452 646
27583 14525 656
3909 5693 748
29003 14793 166
24017 22327 338
16218 438 21
9304 27165 990
8046 4355 730
20253 19878 214
18779 26789 716
24127 23942 231
28373 27155 571
10832 29740 496
16002 23333 456
19167 15968 446
26060 658 729
27877 5819 824
1553 23751 998
27326 12693 327
25498 20355 247
19011 29549 231
14316 14628 560
24498 23853 957
2644 29448 712
17139 3650 821
6226 18984 181
24162 3420 236
3112 12695 942
2742 28630 775
15893 20740 742
24939 27793 582
22698 24343 175
9930 11955 561
27134 8878 708
592 16573 588
595 13745 993
23386 22669 375
3935 26562 464
26994 22979 15
28074 11455 416
16450 17770 459
16608 27661 307
12969 27841 935
29915 10691 53
8967 12763 978
25399 13277 655
8849 3500 484
25585 5677 921
5595 3214 767
4176 9897 229
24993 29116 51
15565 1146 290
22355 25695 613
27988 26821 617
13072 25166 820
18809 7682 5
12557 5800 47
7634 24118 891
7240 11881 242
26446 25737 685
12314 29590 506
28246 25865 400
16440 28327 314
14048 16213 850
18513 1534 438
19716 12262 376
27772 25765 440
11070 7335 350
21573 13542 120
26629 10367 433
25581 20594 214
1456 6617 788
22042 27549 484
6075 28173 268
16034 4494 246
16303 22998 946
7420 7830 993
29547 15971 486
23651 7042 465
8251 14121 153
17850 25501 437
25019 9435 42
27397 17268 841
13182 4013 266
11295 6488 203
11249 11994 564
301 22859 245
4853 23472 147
26745 6996 969
24192 3643 857
13800 22868 219
7929 1327 610
28039 8730 167
1314 19981 830
4997 7463 355
29702 15839 106
11276 28278 901
16335 29003 374
12114 29497 128
25564 25088 724
19207 15899 229
20285 26140 384
17589 5744 874
6414 13171 871
12740 578 641
13997 21810 808
10027 18245 267
27531 26959 667
640 4438 950
3392 28156 613
20519 22879 823
27409 16790 322
28764 3026 33
16074 17657 331
5201 10690 503
4062 6233 944
28526 3228 120
1121 26640 466
3339 15060 231
17405 7121 173
27532 6005 828
20723 11021 550
15157 28293 870
25394 8178 264
24413 18316 13
19789 13047 920
19574 4684 695
12175 21683 158
7796 15141 191
29804 18337 13
5960 11474 446
17369 4178 163
20739 10436 52
26453 10722 758
29541 26113 708
10701 13495 865
3868 29215 291
451 18711 968
2992 11032 71
26545 12302 423
9822 12027 951
19515 14727 452
13738 27749 108
17746 25896 499
15754 11150 299
19810 5969 290
15250 131 118
18831 22856 115
11313 12404 180
16022 21932 601
6426 26215 363
13198 6555 913
28436 9639 407
28882 26219 578
14508 19401 405
28173 28039 749
3057 21988 765
25682 13602 774
21405 22888 679
5331 8346 399
10385 24807 323
20034 2464 669
8810 14911 688
10636 22706 973
29900 1442 103
16086 8031 905
21430 25828 709
15250 7143 841
18950 10020 641
20158 29618 850
10414 26499 466
15860 5371 679
3836 10678 30
27060 15440 563
13829 28287 224
3792 28483 397
489 22502 755
6956 4290 245
9876 6864 198
17967 5811 596
27225 7886 592
13555 8786 699
20333 7507 113
7196 28989 679
15471 14146 34
2366 16345 845
21250 676 998
10562 1715 658
4032 5179 997
5700 20101 249
2855 7317 2
22560 14804 628
9850 26460 858
23695 22271 782
3073 7215 888
9730 29515 247
20396 11606 822
16613 2172 467
8685 19985 58
11070 7838 280
71 26816 907
5151 11948 696
23997 9007 531
18967 12691 922
25814 9225 147
2952 3082 27
15458 25077 197
5991 3908 136
18298 1263 538
8704 15301 822
16646 15827 527
12799 21102 995
622 8848 795
8302 9029 238
14452 5070 73
20738 25465 656
1783 27767 117
18094 27008 87
20485 23501 866
27216 25128 142
12725 20050 56
2151 2136 575
25867 16535 786
11516 25241 518
27955 24579 667
21161 17815 697
28713 5395 812
7412 26867 572
8107 13634 343
16959 10960 226
149 28456 758
15952 13540 69
16215 26548 922
26422 4761 273
23508 11924 316
11730 26727 433
10767 28956 957
9550 24590 834
3859 6468 401
22082 3552 707
26295 6280 22
3636 26554 244
23103 21772 392
3866 5391 175
16978 2748 621
4954 10578 844
3906 17916 187
23738 100 900
15503 24539 609
10517 9850 177
23155 16884 425
18894 14611 73
21862 13310 139
28359 11306 809
27772 5579 197
1203 14673 917
44 8942 702
7058 20439 516
2197 10682 501
9916 19775 321
9353 26167 964
26857 25550 184
25161 2014 696
10355 2938 969
6463 1431 525
1075 26896 716
21294 24341 139
26753 7490 980
19521 13573 508
19020 9617 962
9827 1147 870
9023 21722 47
15034 14310 434
16861 3347 798
1515 181 50
29708 20518 488
7717 26560 63
3121 26714 428
11458 9560 286
25894 12839 410
29691 15619 237
17632 29393 745
3073 25984 595
20232 19433 885
27689 27241 680
17451 7897 616
1566 8390 828
29093 25570 544
18251 6566 459
17791 20342 248
8561 26357 962
17170 14564 897
27258 995 445
15655 25233 92
12113 10968 879
22293 1632 683
25127 17015 868
25544 23061 227
14214 29765 522
13650 1881 122
25993 22850 80
2069 22241 369
4457 21645 218
24923 13517 963
17395 26887 771
9654 3294 142
1781 17613 262
21462 11800 152
28121 7688 880
13245 13435 45
19387 28392 787
10969 20201 290
29748 25273 114
15370 548 560
4470 27393 32
26653 26261 799
4588 3244 502
26816 6503 410
22811 6582 87
14972 19164 527
22939 11274 443
28880 16190 429
12996 6290 941
6019 6148 490
1472 7351 936
5338 4295 381
3045 24104 436
10082 9095 20
21969 11466 415
8073 7666 141
21662 9269 254
6921 10133 979
16752 29397 810
12900 18179 697
453 10361 182
12754 6021 136
24999 15166 883
23600 6313 763
1948 18881 521
22384 3473 564
24601 6919 152
28260 27033 737
21421 11706 763
20491 6841 590
25455 25054 54
18562 26192 223
19448 8086 895
22767 20259 762
15034 21572 893
12114 4449 361
20153 6445 806
8919 28686 171
4504 23666 541
22101 28911 196
24341 24987 684
2731 26655 780
24836 4028 519
8376 21855 701
5821 27967 79
1518 15172 196
29000 23269 175
5383 6901 322
26846 27862 866
4229 24978 624
23186 9066 601
26186 8519 32
14300 6228 153
14541 4507 422
18335 15280 393
12861 12429 981
22441 27089 830
3137 22459 687
12571 19542 959
7282 17456 295
2994 3263 635
28802 13047 459
28198 23481 491
23716 24218 932
3005 15713 849
9602 10238 276
26985 23223 534
12238 27666 11
28684 26981 633
8934 28006 652
22976 16109 113
1618 15879 819
9200 17408 176
19833 10225 8
22694 4666 505
25809 27791 915
3859 14499 944
17104 29005 370
2272 5767 235
11710 23636 2
27527 28839 621
7936 29949 225
15004 22792 213
2816 14347 216
17119 13562 573
23019 17576 852
11264 6494 934
28712 27589 412
28399 26025 156
15360 19408 503
6919 3690 542
7666 15687 887
2545 22172 182
12898 217 996
1637 24537 401
1392 21034 417
11884 7734 990
21104 13585 101
8034 19997 567
20393 11568 426
26793 22111 871
21489 11723 17
17089 19390 904
10110 26146 100
22247 15222 673
29025 213 134
19533 2467 63
20714 25518 103
4754 11522 983
12087 25685 271
5049 11836 228
3500 20592 477
10277 8377 286
6492 18162 901
20065 13912 870
16927 23945 768
24293 3855 304
3597 28027 794
14025 28619 289
27106 18185 576
4432 1056 506
5858 9060 788
28741 9811 68
26407 21925 737
25680 28465 67
5818 16838 631
25702 23438 70
17183 27253 308
1901 9633 990
20545 28488 558
10657 24451 531
19478 27126 885
240 28098 177
18483 11808 259
22521 2514 665
21170 22899 669
1697 27513 631
9488 14461 213
14625 21294 360
28080 26360 25
28973 11192 803
5594 18997 570
28568 12226 561
6232 22474 643
25437 10167 598
1537 21155 101
772 25079 725
6301 25899 959
2788 10940 795
17493 27128 329
25533 15094 482
1606 28953 289
16494 5546 89
12598 9548 807
18022 17901 634
28729 27053 445
17247 3165 73
20540 7693 276
2799 29608 332
13563 23519 535
12310 20968 953
11519 9346 455
7123 15121 191
11721 24187 348
25962 22069 791
20262 29664 10
9593 19352 692
6918 26722 64
8247 29551 778
29988 23183 254
3328 16142 420
16381 18891 425
23139 22784 597
9757 8428 116
7945 24901 722
14017 26992 996
26246 2924 333
6564 17119 529
4788 28381 858
8258 26487 439
14400 8797 150
24654 19035 641
28023 25463 849
15257 15745 431
20221 6084 849
28937 2137 848
1221 28914 31
28674 28092 131
28493 10928 569
13762 29547 412
25483 22246 563
2857 18084 856
11715 23835 254
28866 22427 623
6327 18164 709
23835 17724 991
24674 27276 377
2474 15383 541
14578 18941 130
13842 7048 580
25776 23151 41
11044 6215 592
8747 21096 35
22144 18915 31
4858 20402 677
20957 4234 92
5851 2111 279
78 26812 96
27532 14316 699
2903 16497 912
3719 18386 43
2789 3649 911
6072 22893 57
5680 8179 321
27948 12364 271
28787 8577 554
27479 10245 2
9313 12953 758
21072 4424 211
25270 21177 595
2241 12000 811
14710 5805 463
15617 23045 217
753 8328 401
2709 18289 6
16695 15619 919
25369 16967 404
24277 3814 974
29932 14511 183
9424 10023 764
1301 852 130
2810 13996 112
28268 13626 389
29507 16802 820
4048 24613 86
1368 28396 252
16417 3896 11
3457 26759 627
8166 21559 41
16757 24389 336
25632 3112 176
14619 22679 234
20423 7881 682
28055 5243 759
20864 5277 324
14015 7083 370
21399 26961 243
22979 1436 435
3938 26455 500
5442 2621 641
20881 5266 822
10237 3697 854
14254 26162 943
26507 28233 260
23987 24619 528
327 18887 361
19654 27751 289
4831 2152 990
3401 3884 597
29728 29298 137
24610 29254 344
28207 977 1000
12435 18629 692
19253 25013 462
26563 27309 526
27162 15167 18
16680 11747 452
23896 12189 710
15317 29693 151
23275 26313 256
1779 19555 431
15329 19892 474
26992 8878 747
18895 10001 40
29975 27967 406
7441 23558 279
29172 16889 878
3626 1142 427
7834 17902 733
26021 28802 752
591 8703 30
17551 5266 859
8397 17248 673
9260 6761 906
8783 12074 692
5315 12173 740
26056 12418 807
9703 8168 760
4093 1788 223
25962 16251 741
1776 5529 463
19010 13910 304
5870 4695 582
25189 22601 209
17501 10986 592
25075 2106 421
15965 11451 124
21536 19259 361
26896 29801 405
12242 28615 246
22757 6094 768
12692 27087 84
14997 4446 881
26727 29753 567
5493 11482 366
23730 3596 362
5263 27596 776
12910 19107 287
13853 21407 536
27256 19889 773
10256 15172 94
566 24359 786
20264 412 249
3477 234 794
25725 29507 499
7012 19642 432
24321 7499 444
20246 7383 782
6072 27092 911
13419 21958 990
18063 24020 360
29983 18009 100
8457 2052 410
21719 25251 979
24579 8902 271
19047 18056 526
23464 19404 687
15638 20369 917
1764 27387 359
10842 22320 978
3971 3931 682
2865 3570 381
13498 1470 888
18186 3394 231
11981 16756 440
27153 29444 40
14437 17421 255
23442 23639 23
15587 29914 510
23827 6511 279
9200 21264 698
8641 18306 632
9130 11741 149
25812 23979 346
10425 24045 621
13493 10359 390
1581 19386 500
25556 13272 97
28004 6365 629
11831 13005 139
8824 27896 239
20252 9924 971
3204 17879 59
22917 7585 554
11143 7988 238
18484 16143 186
27251 17901 372
29226 27276 960
12832 22263 841
6628 28546 478
3505 10293 910
810 3095 556
19371 8595 642
17592 13472 921
3946 4773 189
7774 5381 616
9707 2495 627
9317 20855 379
27162 22605 607
21668 26394 872
11485 14895 258
12109 20990 504
26131 8144 652
29827 26815 331
12776 21397 338
9344 7170 375
25929 9292 274
17758 29292 80
20533 13442 269
23437 28681 11
9592 4326 640
20532 7803 971
1938 26681 271
18549 14797 759
3877 1286 114
11426 18669 543
15394 18843 444
23390 1908 861
8972 996 732
28871 19503 926
10851 27995 764
3823 11972 160
5793 675 426
14169 21477 39
6786 9620 878
26493 1476 52
389 7083 704
23726 27931 104
9253 5468 346
20268 14047 906
9348 16838 581
19545 19065 781
11417 29538 132
9329 1546 120
23417 1228 38
29485 2709 71
27314 7456 878
20355 20100 112
11834 7588 376
28268 13425 87
28338 4920 861
22233 6208 736
14016 10825 149
1479 1763 77
15624 18000 31
22726 4766 474
11459 23190 355
8063 11323 837
14002 23879 219
13287 6809 157
11827 3546 553
18911 21121 713
21121 25698 946
10378 23252 691
24982 6673 59
2557 24340 701
1751 12628 140
8763 3920 708
23422 7051 816
321 25010 198
23884 21861 742
14543 25097 76
4615 27817 915
28003 4534 876
10627 12838 99
17525 22041 504
11279 25068 151
5412 11444 299
11851 27097 64
21807 7014 167
24017 14532 830
2899 25901 892
1184 2351 724
27768 23910 814
10177 29099 252
28391 24643 665
12898 18449 88
20974 24841 836
10258 21048 815
2818 10520 225
28987 10764 915
15695 10799 440
9886 20722 921
22617 15744 553
26578 13136 490
15718 9316 24
2346 11032 697
10355 24485 996
17716 25312 342
25939 20931 43
827 6150 799
5609 14992 811
22632 20310 806
16949 26515 104
21675 25997 239
817 27852 80
9684 5321 663
899 25679 785
15337 29430 336
4236 28113 495
14176 29907 736
22729 3461 211
18935 12050 278
1416 15788 767
3100 24551 771
22838 26172 7
10099 16583 396
24372 20423 584
8524 23251 321
16285 25539 629
4489 29627 565
3299 5056 758
19870 14801 813
27058 25418 295
15784 9860 277
12877 12523 549
8585 6066 204
17851 15418 317
10139 2201 500
24634 5172 708
13087 20681 627
15551 21090 424
26279 15815 507
23357 15705 494
28799 16995 74
26250 23279 344
9447 4101 226
25523 11623 335
29983 10133 648
29989 13300 769
374 13094 129
15870 9630 621
8611 1368 511
18117 18751 283
20451 24260 862
23505 25000 239
17947 17860 305
10261 15030 522
29622 3640 382
20676 18719 90
2648 23288 154
26179 21244 6
26601 9070 111
24685 4125 737
136 440 120
8087 1017 523
21609 29098 181
16291 29641 213
29849 28246 281
14964 8852 955
8915 840 596
23897 7495 646
9786 29947 764
12335 8293 130
20242 19302 454
12660 27842 440
12705 4751 627
25704 5450 979
28539 2134 52
20529 2539 842
20228 28249 879
6064 20249 946
26868 3368 882
26598 3815 739
25047 6737 84
1682 25999 721
14710 11621 695
14062 28198 629
27131 11288 862
22570 24652 15
20404 5177 898
15347 14876 846
27813 9870 92
18132 10479 181
24338 4323 763
27397 27923 261
28384 12555 740
7476 24964 371
17506 8508 545
17425 21596 698
11776 4473 456
25654 28470 995
1146 18001 80
22148 7008 641
11062 5471 984
11278 19908 195
12699 20421 502
3560 3257 249
14556 4108 856
7694 18473 25
3920 19017 861
9095 21913 824
13283 29322 106
6769 15375 90
3539 14574 835
7578 4212 857
2431 7855 231
3413 18504 228
13162 25893 392
23957 29044 512
11174 12680 603
8438 20138 125
16981 5393 984
13645 15237 853
10805 20826 182
4785 4262 436
9245 2657 35
12047 23047 984
11901 29284 738
11087 9146 70
12658 24775 937
21359 5709 796
18630 2492 473
29898 25374 787
10586 20138 89
7536 6612 783
19917 1047 679
18147 3924 866
2730 8859 867
5824 11349 928
23408 22492 697
29146 3391 562
17724 29106 301
24963 5108 66
17716 15700 476
12829 3330 891
6386 27611 347
22856 10014 320
837 16845 736
29624 10037 804
21286 18293 307
3974 22874 489
8345 17585 918
10058 23129 174
28528 24434 568
19266 24895 359
1814 7950 248
29660 25685 185
13753 25754 173
2213 27039 514
21781 24576 873
29711 14456 766
22005 1591 508
10812 23787 706
5938 5544 693
15088 957 284
18039 16239 727
2915 11311 413
3901 26361 170
11770 29105 839
26622 25814 423
6938 23980 358
18084 11038 934
23970 3569 38
19845 726 987
22665 1194 839
13272 9951 826
6188 6786 484
6492 9068 132
17117 11303 184
22443 5309 464
22511 25991 585
12026 29715 830
1237 18873 720
16863 16699 826
12047 2556 1
1657 3365 161
7936 26172 179
1399 4410 731
17241 4604 910
22941 27896 465
4886 21852 556
42 7412 601
25738 9767 354
10922 21691 531
14767 16923 805
10348 2170 483
22604 12744 735
2162 19120 834
23845 521 973
3766 22674 7
21116 17096 26
9039 13549 856
7228 10113 594
13220 7996 592
8256 9352 965
16130 9139 576
18574 16925 440
28301 7424 694
14722 24576 989
23544 29322 20
26323 14574 840
25566 14121 822
4657 10362 771
15987 15774 250
4003 15604 84
15904 2443 804
1487 24900 590
4697 7898 165
1728 18722 73
1726 17346 310
647 3983 153
21195 28942 633
1150 18567 766
5620 2678 3
18749 14427 945
14198 21671 166
3535 18188 341
6198 22607 291
25874 7122 523
8694 24129 753
18993 22329 87
279 23682 832
29475 969 787
27984 16934 280
27778 17268 565
3115 22469 542
649 14633 455
27854 7853 156
24941 12609 956
29324 11248 543
8411 12825 741
6841 23803 732
20627 15692 392
23743 15644 531
28489 4791 626
20292 12437 199
22098 15514 21
22851 8896 30
6910 16914 910
13778 27949 866
16716 16071 906
13522 20257 513
16127 3639 828
3017 20038 435
24038 25474 127
21778 13635 622
16194 9727 333
25420 12134 925
3517 12443 432
4072 21511 110
5829 2429 863
2390 20228 566
28606 7184 707
9252 26325 285
7920 9944 698
9636 26707 621
16962 12265 374
4710 24632 969
1060 12694 684
21359 11932 855
7831 9996 732
15547 9091 230
19883 29474 294
9622 21883 572
26945 28297 50
22000 1325 622
25577 21330 783
15349 1809 741
13722 13003 460
24745 14959 71
4184 7638 679
583 15931 369
26855 3787 254
17361 5953 645
15069 13319 910
4105 15381 833
4812 16570 112
16985 591 466
12490 12456 293
3496 17339 672
24495 4415 377
2671 11969 243
26120 10077 269
4861 26248 855
21829 7688 807
16348 3258 933
1595 14572 552
26858 21924 928
19392 6766 998
920 29876 295
14056 27550 965
14578 23597 537
22121 16881 904
642 17206 74
11070 11578 111
29245 14660 499
1939 17510 196
8146 16394 903
25445 10431 936
22440 7167 444
11676 25845 657
4377 515 191
13595 13000 762
6216 2070 434
15503 1741 28
14534 10425 89
1919 18846 975
3899 8390 825
22033 12889 752
14850 10052 399
28253 11716 817
4564 18258 926
16802 14978 646
11340 26181 306
13006 15198 388
11034 5196 941
22461 29030 854
29580 14838 968
19090 5122 587
23251 3880 672
27807 15312 589
15418 13682 98
23954 28038 368
1917 21485 33
8852 5497 95
23261 27735 323
20079 5893 944
15459 22995 58
20481 4794 318
19094 28174 30
1843 5238 382
4580 28774 611
25145 14752 587
15624 22944 583
10510 4319 775
3573 7711 940
21488 2504 85
19501 10591 5
17648 8399 430
18666 4782 380
19508 24215 568
29755 13047 286
16012 4910 809
22583 1305 25
17411 15541 816
12262 26049 924
28844 4518 164
17829 10622 112
13801 4169 870
7136 25929 814
3887 17601 796
25850 11033 143
9553 10962 170
2678 23098 658
24907 3053 638
24959 17770 449
26378 22240 257
3436 11994 153
25896 17131 689
1567 20534 914
20587 27153 617
11074 13780 668
13573 3465 250
22857 20298 819
19348 25743 787
17835 19135 366
12357 8294 551
19871 5756 121
10954 22789 152
15137 4305 402
245 6898 517
16491 798 433
8210 28370 872
13154 13830 614
29108 6842 461
21949 9883 727
8461 16894 638
29499 16161 103
27256 22787 141
24629 24965 695
2224 3862 904
21053 26337 824
13049 23774 84
22589 29185 747
28332 17240 941
10768 26164 405
18315 23162 280
14600 3881 855
3663 18127 64
26864 20037 669
3658 23432 227
29698 29163 617
17689 2331 628
23437 29136 328
6547 9898 266
8654 13490 612
17327 472 280
13897 18639 356
10236 29423 600
18070 6198 791
10242 12495 598
23835 7716 294
2526 12655 307
26834 6455 194
7353 29590 767
11860 18383 336
6693 7654 878
23156 29782 377
18987 19332 737
27409 388 326
29348 17066 463
25737 14465 220
17195 12707 723
21889 19809 509
14187 10642 105
23954 84 13
18882 27696 975
2246 29086 245
12643 9461 164
2180 27713 60
26496 2672 745
28413 5299 134
13678 22471 652
25123 8344 839
29896 12234 832
15499 7699 530
29818 12828 456
5070 9346 270
23568 29548 419
16549 28752 298
15 13889 420
21392 20699 727
3962 15034 966
19462 5342 780
17987 15903 472
11532 23936 373
19857 17589 77
2384 18865 562
1259 11718 610
13238 7980 438
24855 11499 912
6260 21200 686
25111 1135 338
8456 17638 717
14385 18992 191
23603 2644 309
16539 17736 661
12391 29883 125
3038 5853 752
10963 6073 930
4575 1393 764
2027 14641 143
10833 11593 791
26903 2314 277
28784 23579 277
13711 17391 70
14908 24286 349
21349 3681 411
22335 25159 978
6194 29697 577
5709 11419 508
19735 7976 559
8265 4743 953
12659 17921 217
12041 28047 441
10412 23507 265
25477 16146 285
19085 4176 651
17148 10563 187
5129 11365 102
16231 26478 962
776 2000 728
473 4056 836
15583 2279 57
13136 5679 574
4048 23294 723
25722 9823 894
14209 14172 593
12816 25030 606
25248 9141 315
2929 17939 391
24482 13504 754
25888 13916 847
27482 5419 154
4751 26819 712
29811 8099 984
25732 6036 862
19070 263 989
25116 18576 170
24189 29074 346
19419 148 290
26628 16219 52
12491 1069 178
2644 7023 275
18228 29281 129
453 3765 972
19202 2142 615
1287 24831 167
3094 13749 544
4219 572 444
29356 7768 505
18334 28090 692
1348 26829 919
24788 10997 717
11373 12077 124
5212 19675 622
23613 29914 43
20079 15285 510
25874 12009 974
23314 10611 192
644 11059 174
13423 17072 238
27295 24723 957
20482 10569 95
20553 2252 84
16648 29127 411
17059 19372 812
23834 17765 73
1166 29902 152
20673 19374 91
1109 4650 464
25924 19300 559
8811 22811 447
28722 15447 721
462 23459 86
25878 24342 439
18010 24475 786
19960 25666 826
16044 12743 183
4804 13382 285
10638 13312 186
19622 18315 440
23443 25330 462
13993 16224 226
16271 1806 447
11191 21574 230
15795 18706 962
24546 10216 877
21945 18387 986
3960 6029 318
8515 28322 63
20323 25185 562
9153 21033 348
23465 6816 904
16429 25066 850
16386 13146 336
24683 23291 909
5185 3747 203
21286 23639 884
2286 28334 56
4832 10294 801
16168 13925 993
22680 13796 38
21980 19816 50
29369 10948 337
22751 12570 342
26415 9709 607
28691 22809 274
700 17363 54
13659 13947 961
23348 10508 786
15311 11866 659
25183 25202 211
1792 8457 526
12898 23365 515
26578 12373 66
29524 22804 964
23195 25164 675
27900 20504 779
10585 27749 95
17399 18136 473
3650 20939 194
18223 28493 586
11374 2654 392
5281 21705 95
19114 20369 671
19552 18720 877
9615 17697 174
1672 14911 889
26687 301 786
24355 22635 280
19897 9376 835
10138 7389 219
8240 25059 967
16418 9463 109
14095 21401 900
2580 24977 215
5966 3532 644
6496 3651 214
24682 9244 396
22497 14140 436
2900 7292 450
9019 17836 703
3872 19914 642
26758 11310 988
21581 17208 400
27668 23244 608
14268 18439 964
4863 19482 332
6510 26949 884
24255 18326 577
5533 3533 627
4168 1323 641
16901 20678 851
15521 21905 759
27716 16257 529
7661 27778 529
1575 27061 788
15770 17708 558
7907 149 920
246 29061 888
24601 3183 456
19622 14886 607
9867 26224 780
15400 21746 260
4793 16333 332
14663 3482 765
29776 450 500
4738 7336 867
26094 26714 162
22159 12870 330
15572 256 886
27361 24436 956
13616 28868 413
6851 14817 855
2594 25922 665
25854 4313 179
25279 18080 652
15041 29175 12
7086 15281 134
4029 22170 401
21136 20210 505
23462 203 300
12874 10764 137
9550 14024 459
22019 3261 42
8866 24812 285
20060 7645 749
29999 5489 513
13005 1960 855
7773 10009 982
28974 16041 358
1368 22663 906
26040 25674 245
21185 19468 730
1914 3250 955
17095 19942 766
27745 18760 602
19905 9596 269
1965 25246 251
17492 8455 444
1446 26842 98
7331 11261 476
19982 16865 447
4948 1724 86
6554 23506 698
10678 18299 569
5307 17890 704
9537 16480 50
25894 5780 219
13308 25004 487
15598 26828 186
14932 24895 234
28381 16755 73
29270 16799 763
27692 599 834
7979 1757 261
29505 7666 485
8956 29738 428
15974 4557 988
25152 11195 895
25749 8024 823
21786 24855 413
7098 27729 889
5279 6384 239
29084 25648 384
20191 9553 72
10512 23048 46
28543 26696 256
25323 29644 103
3339 22690 757
8236 9818 400
21055 9259 466
23455 15070 690
6832 3996 123
11280 18224 783
23120 15658 746
9902 26893 664
12569 23321 814
24320 28546 280
27978 11394 695
15237 5989 469
3884 9943 818
7362 10071 192
11534 6824 574
13107 12647 13
15094 25787 191
23774 13676 469
22257 2613 449
27726 25576 172
1757 29240 942
10830 22111 879
2244 11124 435
22397 21637 70
25122 17940 290
9415 29470 919
16629 21973 783
20523 25652 146
1452 17626 546
27594 14442 975
29169 21028 466
19711 24068 52
5531 29650 542
25394 10543 971
3693 13683 214
24772 8229 148
8171 25989 72
21057 10261 990
15690 24485 72
9295 26488 865
21205 21042 430
29647 24293 224
24875 19846 580
3219 1875 505
24076 12043 581
28131 29875 382
13029 13110 151
16897 4081 333
25865 6047 216
18945 7842 338
13972 2728 22
17747 9308 297
26831 18767 600
8405 23667 517
3305 18759 645
15707 6751 786
1372 25618 694
4860 18073 706
166 24095 266
2402 27312 771
12661 11446 391
9752 4520 821
13158 26021 348
22375 18796 785
10217 26144 576
20711 27150 836
20334 6415 870
1337 3487 949
10088 10822 611
20859 23262 325
18961 17801 416
29620 21218 435
20172 16029 968
24815 16872 680
5260 10486 695
24321 17920 473
10891 25270 375
4452 23214 686
6394 12155 908
20625 14815 161
15832 2225 108
24883 22225 354
24924 23625 43
21508 23611 90
4596 29909 741
28150 25063 391
20297 6730 717
12763 17181 284
16253 23536 808
29448 5324 282
6160 3256 248
20124 28184 3
504 15775 800
19639 26332 825
1416 6085 69
11964 3177 990
4545 5942 450
1903 21887 108
27069 29090 683
1673 11000 544
10715 786 587
27696 21580 507
28736 19950 578
4548 25061 631
17729 2032 85
26033 7154 105
13414 7925 938
25627 22318 715
21857 25808 289
1908 20502 959
19507 4833 701
22919 7981 281
116 6491 782
19968 6778 668
2169 25398 178
16757 25285 984
8030 2504 955
15768 16181 147
16840 3330 59
2916 558 764
12556 8302 761
11702 27527 990
17586 2422 658
17119 5584 554
1091 20702 525
19606 18666 922
14035 5714 247
26796 20929 243
10469 21106 165
29201 26622 514
8790 20630 733
27303 27039 884
22894 4199 569
15299 23586 953
12138 21591 342
27546 14657 60
6104 8856 76
9286 4468 962
15523 10959 964
13261 27955 80
14353 7432 738
25499 13354 450
29049 15019 442
16733 26886 524
13886 1818 324
21025 27227 744
26126 10147 922
11146 28440 683
8059 25495 90
23870 2692 899
6482 24403 832
805 11198 777
18871 1740 553
2952 22743 486
21982 25231 718
4670 8505 639
8043 24750 109
27600 25320 744
1158 15177 481
20372 9305 471
220 16409 592
2535 2755 559
4941 6746 165
20602 21382 120
7904 26026 220
4210 4537 933
23413 26095 941
15643 17521 988
7992 5805 181
20189 4643 331
27565 23233 333
27324 22610 920
21244 8313 859
7496 24749 870
27082 23796 651
7936 12015 684
18256 2632 927
5643 17995 895
22264 4565 371
27096 13772 859
18639 24293 19
22253 15754 455
28978 15209 570
15425 9570 533
12863 27448 127
27428 2257 970
877 15607 254
16213 11814 747
23938 23290 585
5367 3888 83
769 7011 820
18989 7590 955
2275 20795 548
20013 4705 289
5412 28380 489
24622 14214 982
7137 8085 389
29297 4637 489
29096 20802 53
18956 22375 493
530 25352 978
2558 7919 68
14798 563 901
5353 27307 555
15759 12918 347
17865 11176 395
21613 18097 368
5848 24943 831
11218 25193 726
11084 4818 207
9527 15797 685
28515 19037 456
7607 19335 942
24778 9737 246
29965 10098 867
12693 24967 518
6267 15947 995
16643 5215 187
10203 26076 920
20179 2888 335
21363 7973 776
4369 24749 428
17945 25552 758
26592 27555 631
10982 8722 721
1253 28798 834
18193 4356 819
29281 1549 860
19132 19911 787
22597 3890 517
13475 14597 343
15724 4367 849
1985 7203 753
11436 14139 574
24665 3843 124
23043 29264 576
8334 16393 156
16144 21672 289
20807 25946 81
23948 9284 694
1518 12860 730
25695 17470 547
13521 20073 392
22506 15793 617
1562 26236 10
14420 26478 936
29067 15204 457
20636 9730 949
26734 5164 919
21657 1257 728
16990 9983 974
176 27606 592
27786 26453 531
29088 24502 658
24617 15903 8
27030 13596 787
28456 27476 670
28332 12007 866
29903 10097 793
16981 4809 186
11558 4211 79
8276 22805 143
29052 16877 692
24806 3170 606
3608 17198 666
26873 607 560
22617 1509 290
3312 11102 544
4156 16948 259
25217 11265 585
19159 20372 495
27387 26872 352
14251 27864 354
28106 11724 392
9890 25828 548
3428 16064 528
8629 25037 168
12057 14673 349
12800 21789 61
24189 2886 554
28278 1790 456
12641 5281 425
13223 24226 734
13946 20381 681
9825 1853 953
26217 7576 886
28536 18955 498
4280 21775 295
20015 13512 435
16067 9550 367
1956 14818 189
4477 14169 362
5375 28439 257
23742 29151 657
3712 13844 891
14917 22524 740
20749 18077 750
5643 17376 51
24827 22866 519
1716 7012 292
21706 23522 426
20926 14878 938
16998 3837 760
6213 8069 543
20974 21784 655
845 28332 1000
29838 7231 345
14603 12434 571
16576 15859 919
4719 20395 470
23032 23950 384
28685 2028 253
26742 11758 649
20509 22234 495
6413 23213 122
27931 21141 337
5327 16323 939
14050 21356 614
2667 26667 141
29934 7105 450
11479 8106 858
24002 23774 99
5090 10658 613
27361 24792 523
22027 14630 32
6167 23545 507
28040 28612 251
11625 14143 349
25370 18343 213
8835 8688 382
6315 27759 531
4458 26635 81
14896 4666 913
11079 25194 468
14012 20965 245
15356 16310 585
17903 25352 96
8103 7896 634
29427 9827 575
24614 25914 171
9676 10034 256
20612 28015 977
20027 5124 41
27609 2055 318
17735 2638 871
27778 26416 393
6496 21749 657
28261 27294 191
14098 27207 409
13540 13359 276
10897 6620 527
1159 5042 133
12668 24932 720
26141 1812 901
27272 4237 739
16042 27529 844
18731 15375 444
2354 25686 603
4937 12646 998
16219 4910 343
11024 394 670
22129 19656 665
10146 2379 879
26385 17327 986
23193 11111 303
6329 24396 224
9069 1271 303
15780 24515 919
14557 7406 782
18567 24627 710
1275 6319 790
27081 29486 183
25129 24331 194
2 26658 249
577 20564 399
21045 12328 604
12549 10231 213
19249 24548 887
726 9149 922
9934 2657 916
21697 26897 538
1697 5159 536
20677 27194 466
4136 2136 576
24004 22830 752
24234 1485 158
10831 22858 70
8558 19195 166
15692 17901 22
292 23514 19
13314 5527 107
23180 9630 60
22413 26099 378
6400 26575 860
4300 2035 177
11679 4297 46
24493 12258 133
3199 14659 877
26535 22783 964
25219 15939 337
440 14118 225
8507 7927 117
20211 22001 215
27145 16427 737
8002 22405 310
24547 22653 587
21829 13870 276
5367 29823 856
25681 8993 329
13994 3065 593
28644 16453 103
18835 8051 456
28194 11947 62
14609 20716 912
13675 2520 980
25568 3038 667
10994 26895 480
28052 28515 333
26184 23818 478
17350 2829 137
6980 11900 318
7302 5546 522
15235 19624 1
11690 21479 650
846 15295 696
28243 7937 936
6053 23366 178
23855 3630 36
15347 14317 266
19381 28011 99
24434 4646 710
24782 27614 287
23288 3557 576
27867 96 822
15113 13540 600
15911 6093 999
5359 4730 132
26652 4861 689
23380 2183 935
15866 2713 706
4657 24038 587
18427 14218 136
21660 22682 679
2441 14955 419
25144 16994 438
13439 9948 390
23068 11849 311
8904 22143 878
5071 29460 912
13896 13493 666
29908 21998 131
4589 220 141
26935 15703 676
11583 1539 273
18340 21296 554
24440 14793 690
3865 13255 233
25138 5031 940
27554 28313 395
17503 19067 469
24942 17777 591
12606 6740 723
23824 24523 539
7937 9316 801
498 5845 396
10821 26100 874
13096 7163 67
4234 4623 34
11012 14553 51
5377 5491 946
9157 20929 856
22672 26681 370
20620 25779 997
20806 1154 219
4078 26514 34
3438 6032 220
8845 25294 682
19238 26992 418
14660 24777 377
11497 17790 568
9048 1364 929
25984 26339 710
7074 26081 333
20629 19512 761
7101 10803 694
2557 11530 663
28305 25210 621
19598 28462 339
29402 24229 628
6841 89 232
20085 17666 242
21885 14625 129
19638 9543 484
11596 16711 740
21795 25443 365
28541 1273 566
23265 2800 884
6305 12000 327
17188 27796 798
24404 846 714
18740 29251 411
7098 14852 983
23935 18161 503
9262 1656 951
25328 19644 436
8894 21466 91
11223 24523 80
12775 21201 477
1709 28786 834
1467 16290 298
13934 15808 620
647 6638 219
25341 24177 51
12643 29602 327
20310 28085 684
17918 10657 854
23997 6854 999
1953 7900 708
4986 3548 970
5847 8485 879
7182 13081 2
15160 21502 717
8627 20702 201
2642 400 1000
20553 21776 112
32 27309 838
2936 2952 315
29817 4362 319
25413 23292 881
6756 10532 87
15925 19878 579
13048 23977 879
22515 22484 118
9776 597 511
8935 12372 20
21608 15329 675
23829 11694 962
18357 7491 543
23360 25673 97
26097 20966 844
19530 3918 188
22585 21618 336
28943 7731 623
14752 11938 893
29569 17204 205
2831 14799 928
28032 19843 384
14757 21093 781
9016 2007 773
24216 29441 424
3021 9326 889
14710 2308 172
8893 8877 115
24879 17123 74
20041 3513 814
10796 18619 338
23845 2611 668
22290 25416 866
3975 28963 733
28944 26242 756
22491 6865 402
28388 20140 601
22842 1879 24
10623 29586 641
20997 3572 561
2525 27790 242
8968 12110 535
2337 5949 348
10954 5137 503
29827 28493 215
18146 19837 429
7598 6060 178
3946 7942 835
7405 2296 459
22073 8407 490
26821 16434 79
4430 29904 191
5924 2486 230
15551 25392 465
27002 20287 100
13030 1727 152
23771 16621 684
9285 28153 346
9194 6862 43
18404 4544 62
15928 20687 599
11970 1036 995
26676 28183 134
10113 14085 367
22376 2623 134
26389 13274 947
29805 6829 85
27770 17726 568
21361 20050 94
10551 28453 351
3222 12393 79
10833 24393 463
12015 3902 816
6901 25997 624
21305 6612 435
26017 29628 395
25133 13787 987
15267 1707 789
12581 29889 839
17043 6069 349
26266 28842 60
3464 3650 5
26761 28955 81
24880 3720 755
15671 16307 499
22662 22979 791
22159 1773 179
4605 15527 138
278 20089 823
912 23552 526
6724 24973 828
3863 15314 187
17720 14911 597
20635 2875 487
16438 400 885
13705 6691 450
5835 13374 117
18604 22308 197
3660 22144 242
24559 2815 211
6389 29239 869
23818 11753 71
12840 10207 10
5850 10732 262
24619 9320 498
23478 26002 79
14332 29126 752
5153 16179 917
18133 29482 124
12297 3266 183
28608 8791 691
15095 8406 634
1595 8250 226
22940 24480 400
22066 22635 322
10029 29502 278
27967 11860 310
23984 27937 827
28271 5031 52
21659 21173 912
14298 23686 106
29423 19772 595
17151 22492 287
10325 18483 635
18186 620 682
22194 1048 98
7644 6326 55
3125 10022 180
5431 20210 212
12919 1583 11
13261 2503 674
16961 14012 498
1997 9233 542
16355 17344 64
13895 10746 986
6159 23508 958
12994 27204 15
27501 4397 909
13413 9405 467
28677 19788 917
28877 3289 361
27710 26555 988
10428 18062 797
15739 17590 83
17709 27082 669
2941 21496 659
7639 23039 883
18848 10233 251
666 2174 319
22668 13070 99
17536 44 789
13169 21351 989
14219 17757 491
17354 10933 866
5601 17944 300
25281 11695 262
11006 14093 785
29103 18625 235
384 11780 844
1287 11146 846
18589 29125 749
21479 6513 525
12140 10006 791
17603 4249 774
18334 14726 506
8332 7129 41
27750 7449 599
27665 11603 808
16427 26205 560
29039 3416 800
3219 1232 171
24844 23699 188
3116 23685 282
21773 9810 413
26043 27831 798
28051 4628 112
10787 3172 565
29976 275 446
29966 26804 429
11878 21468 104
16257 15056 959
8637 22940 504
8364 29853 968
3310 18648 134
9656 6774 100
8590 29120 939
4602 21789 98
13430 15733 564
6284 8268 911
150 6968 140
22384 29831 492
29798 2560 991
16289 24046 983
20412 5410 163
15354 18078 47
26120 659 790
13054 8873 232
20602 26366 548
16902 12302 873
12955 16612 860
18639 9887 947
15517 17961 193
22139 21429 737
2164 24411 162
15717 22623 552
13627 3284 960
8552 16597 230
7043 10299 160
8818 3202 19
2238 11858 873
14933 16171 742
13505 15361 141
33 2174 437
17685 26816 235
22763 28674 131
21594 12011 142
4721 25039 213
8742 10659 95
10003 24178 34
17287 26521 139
2800 28778 310
27182 3158 884
25513 26592 439
16154 19759 952
1906 24093 867
19068 24560 565
12396 1303 555
15961 17448 939
294 24601 504
13663 28077 728
16254 22550 103
5183 12430 881
26668 28339 690
12029 28476 745
14217 5336 462
7115 12563 446
386 23749 74
6190 17077 39
8263 14440 437
4619 455 460
20298 23196 62
3735 6851 804
18203 18237 494
15988 14113 843
3219 26073 345
17004 3240 850
926 16590 791
27705 29044 595
1186 14942 341
10406 14690 60
29374 5748 812
27360 20483 302
3033 5679 845
8611 15597 907
20655 29441 628
11921 18372 89
20500 2823 279
16623 2794 747
24614 14027 10
14019 17706 484
106 20405 882
6891 20683 790
14811 19244 90
25179 25849 736
15250 20413 997
4451 16106 254
16172 14729 760
7834 8525 753
20162 25784 600
10045 15277 584
1100 9544 731
9813 5731 500
8184 2593 423
2184 7282 551
16820 1406 711
29175 26922 330
25435 14204 748
5521 10545 511
23471 8282 499
26085 28602 333
20471 409 619
5535 6646 780
21188 22155 24
26509 1308 235
12756 23944 157
11010 3487 946
2320 15440 508
1171 1476 785
15629 29634 493
22262 19661 550
18885 5995 766
24904 7304 402
16533 22565 7
26696 24891 772
7895 647 370
659 13717 8
19548 7244 234
8584 2032 810
19361 22903 631
25929 6568 202
9943 21687 195
16938 7280 133
20643 22802 160
626 15285 790
13438 15576 452
25159 10173 107
15267 18957 768
28415 19922 825
28512 17759 557
23958 29474 137
4440 19741 777
10654 1080 453
11032 11569 418
25421 6479 950
14965 25458 614
28357 26757 994
18359 26901 196
13383 23177 567
15645 1875 727
15374 4527 449
17202 8744 13
20013 24155 188
17577 3775 525
25668 5293 236
27287 7553 526
10408 23332 851
22897 20534 679
16444 24307 842
23849 29373 235
23898 25661 180
23745 24392 733
7629 7467 90
23721 22999 698
24658 21601 589
11857 269 43
22151 29219 869
29418 4512 271
20800 3218 446
7621 20888 696
29779 26722 265
12795 15330 764
7266 20434 87
20670 22163 647
27706 1388 611
17205 23243 495
25266 6930 641
7417 17799 181
16436 20037 581
27018 882 460
26516 19517 475
1749 17986 973
27281 28172 976
25081 25793 501
11532 23402 630
25288 28545 344
24932 7289 11
27001 25297 471
27980 4604 963
12021 5071 561
1151 15689 869
24060 15270 455
7907 14178 811
27988 29137 72
6110 27239 584
6692 4905 261
6053 16668 151
29090 9520 901
13704 20091 295
28558 26190 88
403 16674 530
823 4240 344
26489 29860 457
11817 18307 834
29652 5031 715
334 26579 870
7097 2671 950
8691 7819 540
1296 19992 983
20560 25234 375
863 11644 97
13850 14438 525
11494 6964 670
19379 5521 669
25731 13996 591
6779 5458 783
25161 5286 525
21486 27673 167
1541 26368 319
21490 16802 347
15485 22634 180
19667 7434 991
22722 4970 282
24495 12114 815
24903 25607 673
22678 8724 241
2617 7419 29
14859 16683 117
12098 4118 621
2389 28942 294
29482 2209 421
1168 21237 109
15274 21411 997
10740 18196 984
6766 6227 850
4981 14914 381
26443 6920 508
8948 23497 174
17621 17139 175
12927 11134 705
15149 9556 479
26021 24252 34
26075 2420 825
28700 20272 742
26085 13007 217
20391 20594 441
3662 29462 773
19814 16701 379
29727 513 40
10668 8500 290
16646 6924 463
29319 609 273
13268 25104 407
2623 1702 755
8347 13927 529
17562 27570 930
25013 24298 413
28302 841 256
22773 5097 873
5339 10408 505
9507 378 398
26696 29752 214
11727 350 86
6040 5903 168
215 29243 937
12144 13415 703
28108 19413 68
28862 4125 496
20008 17048 554
20338 13910 327
21490 2852 245
25454 13641 532
5218 5922 921
24052 13219 814
14826 1431 450
2695 6706 775
25862 3175 82
6613 2001 719
23206 20990 491
19578 29359 503
5915 29089 718
27652 6140 129
25026 20472 620
16103 20004 914
20273 26104 378
12249 23184 67
25250 6336 313
26290 15884 808
10197 7700 127
25086 27544 949
4809 25903 739
10777 6964 513
13507 12802 946
26164 19093 460
8445 11677 691
13216 13439 329
9422 24146 956
22942 28872 247
23095 13096 70
7777 23251 880
9402 27219 469
27443 27732 296
14140 540 377
25515 23971 31
18007 23989 13
7791 4862 493
6156 21456 535
13038 116 368
23589 24907 531
27662 22135 136
24761 28912 273
12602 11367 533
29435 21146 625
5174 6972 987
6272 27053 605
8215 9850 940
26580 2106 895
21270 9673 648
3742 24684 131
16823 29276 154
29778 16684 895
19590 13704 808
2641 28039 659
25598 27515 773
3571 28354 561
3085 25843 34
5033 19486 891
6460 10900 46
12106 17858 808
29976 20300 710
10983 918 296
17564 21451 15
6589 7233 773
24243 18445 323
140 6539 346
1607 5281 369
16779 23974 675
2821 19613 502
16094 8920 46
18545 20423 42
17799 12276 890
11536 21027 60
10182 5306 438
7360 16531 4
28906 25029 40
23479 1326 753
15246 29468 411
8630 16288 873
5533 17149 124
13387 7014 490
20893 21784 502
15092 23620 134
2571 19744 13
1736 22372 904
25232 26981 307
18708 12807 462
2060 25749 907
18813 21317 670
21573 13504 599
26955 29564 241
11295 26489 228
7166 23244 309
9484 6767 291
21986 18742 924
10930 8076 514
2669 3291 614
5983 6933 417
27270 2682 875
22662 2967 811
1059 10943 88
8348 25007 591
4025 1483 628
3415 12883 857
11967 5459 362
26879 14768 259
12455 21570 685
4087 18900 922
29717 18508 203
27639 6728 133
6963 25061 545
18511 23383 67
17644 3742 552
21223 13772 971
29262 13336 7
20847 8611 689
9084 17269 734
21607 26897 992
177 17333 299
9397 20128 712
25343 28057 377
12269 5874 518
24105 7549 457
14054 19844 936
4147 17227 612
20913 24938 471
1828 25787 712
5135 1365 876
28731 5516 650
26691 28003 646
23623 23076 339
24281 1633 237
29765 21603 924
27674 23600 723
27360 15706 502
23923 17168 959
10071 10558 188
21826 1891 103
25372 19401 967
20687 24749 217
2369 1659 465
4003 1130 580
8349 911 562
25603 14317 787
6669 20122 300
29990 17221 105
5093 7424 562
11454 19069 419
20094 28298 74
20242 8503 669
25079 5206 85
4251 6090 537
4436 26961 899
24201 23186 145
25066 19836 471
6298 8929 100
18804 17021 307
9819 15138 731
3453 25368 25
11130 8436 572
1334 19146 111
24391 27391 344
23831 17406 483
20869 16253 57
24113 967 730
8529 7700 562
7537 16789 120
24984 16703 323
2787 9479 112
15944 20730 594
23538 14971 706
28231 17058 780
9192 8005 323
10872 27663 664
7989 7142 614
19768 16548 948
26344 19839 932
12740 22941 497
1569 24731 217
25515 22512 75
28580 2143 892
23583 28535 464
23376 13479 930
22075 16240 540
8271 11305 947
26223 29840 232
6241 22107 218
11392 22052 568
1737 29145 970
29511 21582 536
23155 7082 57
20606 11840 448
14237 26023 716
11698 1382 384
23405 9400 419
26512 15940 751
450 7948 650
14730 1845 707
2634 7414 483
14352 12209 607
15695 19741 983
17622 22047 846
13679 20628 455
7003 16671 523
21527 1734 376
11100 12576 936
26069 14687 164
25008 14231 45
18386 26385 617
25322 25445 994
10176 16890 315
29322 26346 586
25203 11084 740
23298 8132 145
14468 28804 956
13638 20131 714
16171 5985 275
5594 17956 18
20606 19036 330
27061 20771 708
12142 2006 296
12952 26185 525
2215 22227 80
14240 27636 185
10355 4247 619
24338 7949 893
23882 3514 258
24511 22269 320
2638 28645 179
28030 4426 95
14119 16176 366
4423 7939 370
28153 4764 921
20614 7537 529
14530 18167 388
1087 2796 966
7778 4200 114
23337 21024 125
23287 8085 757
21886 18379 408
1330 21293 331
19036 11167 237
29973 2015 128
22459 12958 486
23228 21760 57
28343 28737 353
7413 5415 899
5835 2943 116
29054 23922 297
3306 1895 72
17542 16382 831
8852 12200 800
5109 12494 566
11175 28861 515
21162 8461 908
19618 22887 760
25046 17513 546
13972 8196 488
7821 20797 200
20964 25801 978
4055 22635 167
133 1259 605
20116 5520 162
20587 5113 468
22022 1051 245
18156 21489 571
9826 8056 148
15799 9685 149
7022 23764 143
19608 14576 830
29423 27250 712
17852 2744 732
20875 8570 713
12568 28507 890
19427 27402 393
14157 24942 600
25156 11279 101
24193 19931 440
27784 21315 733
18774 16516 168
19415 19480 774
29904 9638 985
25273 28306 210
15265 14677 340
19098 5562 948
17412 11803 426
21389 5666 135
27224 14093 283
22274 16630 890
11829 28184 112
15299 29070 213
1656 1008 86
10864 16149 348
14211 22509 990
22231 19253 270
15431 11543 125
24399 20521 549
20401 23447 925
8828 26767 68
26523 23597 561
18815 21812 960
17221 13128 596
25038 10540 197
11917 1786 9
12165 26225 445
5170 17917 872
27405 19732 5
8254 6377 201
22267 10701 318
20083 14957 557
27696 27837 284
14579 16492 128
13459 27140 362
6061 2041 70
22921 26132 114
16793 17665 808
9490 20245 730
27836 20265 353
27171 9303 433
15577 7926 164
29558 6967 315
5798 19482 966
669 3692 122
11923 18625 293
11552 2073 811
11790 4979 410
6321 11257 402
24246 21688 861
3035 9863 623
21122 26061 335
5109 12893 878
13699 29870 904
20889 14505 644
25540 21851 838
6960 2765 156
6186 15634 63
26343 6405 173
28604 5819 896
14313 27030 252
22627 26109 239
15979 6953 973
11835 1461 105
14353 16926 688
5281 28553 314
22405 19513 757
14977 2848 198
8102 551 888
2877 19174 901
23992 15838 552
24014 96 32
3993 18850 552
7412 8587 409
17015 20025 988
21032 1448 738
8746 17752 982
9951 14995 157
25869 12173 764
1843 11614 664
21510 1761 582
16426 26787 796
7063 8220 532
24364 17237 800
10941 21312 1
26629 27636 331
507 13038 629
7523 13464 77
23228 27942 78
19007 2833 854
856 24977 586
7983 20507 929
27088 13275 423
14962 21363 884
24438 18109 450
1001 26132 51
16634 25368 855
6059 15275 880
25664 24772 158
11626 12812 266
9789 14076 802
24068 24329 225
4407 6236 941
5832 26530 609
18728 2686 254
28798 26019 628
7458 29693 47
26100 5082 443
4874 2865 777
4630 29481 456
20488 11665 535
14912 15560 192
21564 25741 611
26122 29971 650
3682 12795 612
821 386 345
10764 3089 325
6340 12953 979
194 10396 769
7638 29902 312
29817 28684 298
972 28322 871
22957 21585 804
8147 26256 732
6605 11233 429
10251 25895 55
28917 22159 788
19386 23807 844
9847 11482 11
20916 19089 113
21338 16314 735
15629 27457 425
5504 21156 290
9140 29111 909
18725 201 778
15975 21139 97
3227 3450 147
2392 3498 492
94 28316 898
10593 6492 817
9631 26595 116
17613 7740 717
26123 9190 339
27479 4890 379
7902 10292 904
4224 6881 976
23445 8178 631
10379 13894 17
3724 4818 595
5846 23497 662
813 20917 505
26565 2976 880
493 320 393
5362 12993 736
643 26529 219
10464 22963 856
28691 29802 646
2387 26627 351
5244 5030 76
25425 2664 499
6731 18840 691
25272 6738 828
7930 29749 158
15068 5566 388
28493 26195 480
15186 9877 994
14124 17900 63
28129 13247 459
15269 27806 845
2815 29037 272
13853 8128 686
17878 17902 926
1220 8444 838
22305 15835 379
4408 16623 209
19905 7326 945
11663 15628 886
15492 23321 156
25749 15448 629
4197 19677 657
13910 17055 554
20197 17278 182
8796 16184 397
536 18843 293
5782 23555 553
29604 12082 370
3974 11382 958
22278 14058 806
18800 9680 843
8820 22975 54
17813 27076 827
26898 23152 977
8543 19344 744
13448 21692 979
1222 29952 68
3581 26664 355
16132 25202 426
2429 25661 502
10720 26974 684
19278 3157 989
25256 12429 46
1997 6579 842
16136 22731 987
24407 3933 319
12517 12690 711
28851 9511 868
10034 18178 833
26592 9676 321
11084 26217 291
26943 8625 639
27312 2042 381
24293 15868 824
16932 258 570
10670 20988 17
10889 12186 357
27718 12520 702
29416 23922 748
7305 7315 294
14562 2344 886
15266 29499 414
8616 2725 19
17547 1653 731
4788 14212 671
7718 8322 878
14227 28732 25
27255 29296 45
24403 29822 377
12670 28566 317
24610 3340 114
22153 3808 443
1159 28536 345
726 25625 695
10786 14304 989
409 11625 601
3314 22513 721
15291 5170 575
13085 21960 431
3946 22691 55
19924 28181 19
19529 27532 276
25996 1436 169
8163 22761 10
13234 23671 168
21731 18128 943
1007 26708 244
460 2981 169
4479 26235 953
15495 4999 436
6486 14209 258
27401 22638 858
3678 20957 140
18374 8558 303
3044 16206 566
9466 9913 94
18283 12405 824
1368 23444 209
28450 8171 774
23443 20563 642
22799 11117 732
14801 28945 755
1846 16305 224
28792 12191 504
14362 23573 405
24557 20684 690
24201 15192 763
4763 29959 853
24987 27626 471
28168 7610 60
16549 26782 319
6796 28598 28
9302 6455 159
21280 25685 522
746 17401 112
4772 5223 147
16171 18382 6
22453 26627 622
24057 1961 567
23417 14567 549
12530 27558 336
9490 21911 158
7957 28874 905
17133 26253 784
22133 21528 53
933 11532 818
29183 24226 36
18480 28678 607
27111 19569 624
21105 26746 851
7408 2662 704
19143 24817 450
12022 27238 519
20758 19087 476
16191 6683 826
1653 18819 820
13152 11091 114
17121 1636 494
3311 8325 463
9785 3424 966
21063 8104 95
13722 8614 166
20314 18360 462
21653 29748 859
3493 17422 68
17222 1751 641
8852 23830 22
943 285 532
8574 12554 415
8816 25173 28
18936 4998 227
20335 19347 52
6823 22259 11
9751 10019 245
27211 16257 59
27488 3121 86
10957 17968 236
5082 10974 862
24738 25542 982
10912 27780 646
26272 8625 293
22346 25300 91
14199 2870 909
10611 12921 981
12897 23509 856
12048 13551 9
22391 16974 458
9328 6959 513
28918 14415 534
18093 15592 570
12860 17638 729
5674 23982 372
29422 29901 183
14896 8157 774
14075 27251 573
7802 3392 300
23918 14707 612
22954 5408 396
27281 27882 349
22372 6334 707
16675 17051 115
11903 27539 121
624 8499 72
20658 2249 488
12996 3722 674
27890 19727 944
7904 5717 704
27919 230 614
10170 116 32
6428 13454 828
10426 25338 811
29241 3646 875
29373 1630 177
28889 18011 394
6511 25835 727
25522 681 115
21719 29471 368
4822 22792 978
3927 9257 815
25915 21496 686
27087 25048 618
2447 14396 182
8700 25935 49
18423 26816 104
10814 16709 832
26300 26694 556
1703 13718 59
7646 10555 87
6467 905 77
1851 22717 417
15237 12060 389
18982 6612 354
18757 1627 97
20226 2461 351
14121 6352 183
27477 10009 952
21562 14151 533
28423 29964 144
20979 5860 294
26521 17001 351
24419 3654 520
24022 26462 435
24993 7300 164
860 22562 334
7153 5054 202
29349 14540 95
27704 11916 574
11564 3497 29
17070 5161 415
25966 3788 190
7468 16151 290
26181 12820 587
17194 8988 438
27121 28374 612
22488 4619 456
24901 25835 792
14821 16948 874
220 3331 743
21512 18326 488
21383 16115 868
16209 24072 336
1878 17965 977
12670 29378 676
24985 9054 680
289 4708 626
4380 4749 723
11718 6463 496
25468 19287 452
29524 17713 524
4410 8208 141
6956 12837 903
26053 13396 808
15006 19118 749
25871 3182 892
28426 17051 71
24396 7832 815
26695 21449 953
22532 435 171
15616 1398 409
8780 320 729
9015 16329 860
26559 4724 781
28564 26053 434
28118 12579 752
27277 29247 953
9574 8519 937
8782 18793 757
10118 12323 133
23590 29448 108
26375 27645 287
9734 16381 892
13324 13461 580
18819 25402 381
13249 8592 291
4507 19657 596
23678 8886 261
23855 26194 398
96 24353 968
12344 26200 409
9585 16679 980
26755 28679 94
2495 27810 870
1117 22114 378
24392 23545 867
5746 15102 575
22606 21954 430
18525 23373 31
22197 22797 95
23071 4335 597
17013 12929 5
28107 13533 40
620 13292 128
17388 26000 537
3731 9563 912
24153 18082 495
23458 3529 629
8392 10123 708
3107 12767 952
17440 26176 840
9165 6228 423
4209 19327 376
17493 20504 934
4723 6614 464
17412 20892 69
27103 29216 91
683 1823 448
4943 22705 76
6562 7156 505
8975 11030 149
6798 2741 908
11869 10974 788
5028 9242 208
15838 15355 885
10712 844 212
19721 27463 880
16467 11714 7
29974 17380 54
19677 28858 538
16874 19730 929
28672 23994 628
15670 18400 192
12401 19788 158
26042 10415 515
22240 15356 131
19322 12207 548
28477 14474 999
15472 21172 649
10022 21875 882
2057 11579 368
5600 25988 551
26687 18078 138
18146 28959 791
264 10026 948
20131 12142 986
15829 25410 555
17114 19022 632
29745 248 700
11032 7529 407
10764 16496 357
22659 19821 420
22459 10855 815
5208 9436 87
26644 3335 888
301 8956 24
4017 25289 887
246 20583 614
26504 19995 880
23778 16520 236
25942 14042 210
11352 14595 32
24961 21249 119
29569 23414 87
20567 22988 912
22736 27778 294
27430 6795 731
16427 3145 544
23180 28554 198
11720 24588 481
26302 10336 233
12237 537 391
3726 22251 483
2738 26437 806
21801 9023 394
25794 21036 195
19338 9088 905
20234 25886 699
11622 27984 749
21663 14091 318
29914 8634 558
11292 26724 73
9113 3231 454
25065 10971 78
23598 17932 371
9023 3565 74
13830 20679 125
22589 8593 836
29894 13845 677
24217 28851 237
8161 10434 626
10111 16881 466
9026 10563 106
29284 10715 447
18542 13759 880
19395 19118 593
6765 22653 286
24032 3768 252
9418 5014 127
16244 2011 241
24423 15079 599
5479 2028 823
15024 10660 46
23063 9313 20
7719 16076 725
11415 27890 198
13548 7467 664
28913 3056 429
16243 7696 759
20172 8947 426
6342 6585 255
17407 17845 621
25755 25907 370
4217 6712 453
29967 7230 231
15076 19551 383
6228 20355 763
29893 21022 229
10089 28134 148
18905 24792 429
6927 4915 486
21000 8076 112
29149 6290 446
10910 26468 137
15247 6857 776
12484 9885 880
22627 13205 884
23177 22882 248
22197 23037 962
11358 10951 281
13986 17107 455
21205 22430 156
23119 25805 527
6406 10675 280
8538 15287 49
17090 19868 314
14786 26598 584
21117 21138 311
22258 14178 549
1557 28708 652
3486 28622 829
28476 25721 470
6194 16146 744
14118 12522 487
5229 22127 496
11613 6813 268
3856 19096 560
10862 28498 71
28762 27317 669
29145 14112 703
20472 21841 228
18042 27260 873
12995 3075 900
8480 23194 448
22195 11071 749
28894 22187 825
21399 16265 986
25598 28756 914
3475 7285 268
1806 22321 606
25929 29218 476
7691 4989 964
7060 20397 476
13551 22310 363
14060 11325 333
19677 8309 365
23857 12236 360
9718 23428 263
29562 5806 971
15648 8741 440
17277 1244 192
10339 26473 551
14136 29519 101
12411 5791 232
24567 19572 48
4740 27409 306
29841 9989 111
5606 8225 574
10657 8850 162
6592 5255 14
11231 27937 506
20086 17973 368
14432 18821 870
25978 27082 617
18043 28452 853
25049 328 788
26429 23239 182
28220 1164 170
5486 22046 776
6521 6876 694
10216 8126 95
641 12754 201
24225 21239 179
1085 2746 134
12494 24537 101
8148 8511 229
1182 21329 267
7460 23504 614
921 16798 333
21168 16957 381
25883 27447 149
407 28109 218
27083 2876 49
3075 14620 720
27425 16162 597
11456 6757 832
3633 80 464
24270 9485 224
22632 11809 817
1192 16035 834
3443 29159 764
18966 8988 380
13972 20029 193
17796 12325 658
23135 26358 736
13891 7661 398
17221 12269 170
1662 9639 157
3932 4591 242
27089 1780 877
22640 25351 156
17375 20448 851
4551 19378 589
3290 23220 483
26905 9307 617
10864 24483 191
19127 10473 178
14167 27667 721
521 14493 151
23924 16646 354
27973 28699 944
11098 26485 90
23061 15027 735
27231 28092 452
25110 10058 657
9560 616 510
28889 27394 846
2558 19039 181
11620 14881 911
10983 16487 832
14621 20037 28
11337 4549 457
24033 1526 711
2766 29104 401
2870 10243 924
21112 17324 795
4072 3562 652
4551 26482 630
9705 14556 795
23826 7603 147
5375 25656 735
2749 4397 784
29167 14461 101
3294 21330 578
6538 920 438
14174 13380 419
8879 26608 380
14283 2572 942
8736 22938 707
9398 12239 641
17286 28458 778
18617 8252 633
7450 7128 863
23529 12291 32
28769 1709 1
17746 24207 127
16862 1966 559
11626 19312 177
12193 10449 344
11353 8785 216
29285 22660 309
7991 7341 402
20661 21142 49
5631 9435 186
9225 11640 353
15475 25997 446
11022 14475 321
13136 16638 723
23952 28569 906
13957 4545 947
29406 22814 24
17635 22317 829
20377 23077 479
7063 24151 260
3946 23141 394
19839 23218 323
19834 14614 955
29569 17102 889
2520 7273 717
21286 18474 139
26138 16124 697
11577 26344 852
19299 14795 140
19327 29846 597
17736 1354 996
20358 22859 61
27635 13822 266
24595 14801 562
24340 14853 915
7020 7339 41
7799 21467 323
10506 29971 664
17362 24514 434
12058 19590 189
6880 24023 304
27985 24427 710
9793 5016 588
16524 17403 177
15941 6116 49
19171 25308 947
21418 24538 176
25326 22738 427
196 28477 41
27349 26395 612
6407 8145 906
17604 26222 810
14138 1563 20
8425 28101 789
27294 26502 451
14620 2682 757
23672 15515 996
28810 6448 407
21460 24090 467
23124 22172 122
18939 18427 268
22407 27649 107
24334 26752 334
25191 13509 19
25922 9825 276
21167 10669 22
24295 19166 357
6378 1789 254
25426 23352 519
27118 5413 742
16138 14657 295
7326 26843 435
3851 18758 337
15271 6029 356
22178 14192 928
14027 3540 860
25853 18764 740
5840 6916 994
7996 29495 840
9039 6870 368
12059 13949 613
1590 12962 311
24504 18843 222
28524 26535 232
23755 23669 931
2921 7201 241
2028 4006 863
11590 9799 103
4721 11798 168
3936 4803 242
25334 14350 650
9483 16051 211
25237 21220 700
4033 29672 590
15770 29620 870
28120 21425 657
17141 16309 893
28950 26014 411
614 14586 902
29216 25059 264
29847 8437 171
633 24162 690
3796 8584 292
23563 2530 291
29190 15776 811
2222 25334 325
22235 18620 123
21569 1837 357
29310 5139 530
8838 2982 650
23758 20139 969
6515 28777 49
26109 2405 397
19885 7650 919
4532 14684 413
28858 11922 696
3441 11418 119
29631 23775 430
1517 14804 822
3709 7617 455
434 28421 75
17275 11992 83
28814 3021 653
3653 7719 551
6662 20062 402
27841 27666 955
28798 21498 987
16075 11126 246
29765 7283 798
10237 27647 272
8791 24834 341
9570 29991 191
27634 23621 488
2780 13031 75
5577 18765 55
15495 16424 893
14635 19952 744
11757 6403 761
5145 18666 775
3958 1194 366
12790 27175 291
27650 13196 488
17176 185 564
8407 3428 430
15172 8612 401
16209 19778 299
7447 922 311
5381 4368 201
13121 13842 311
6370 20627 133
7473 11316 888
1754 456 325
24803 2101 443
14924 2815 243
11960 27372 732
8159 6593 870
4219 18111 383
12848 11850 677
15994 7187 533
7993 20676 972
16636 11262 863
5237 23945 326
22848 22430 243
18512 21937 915
26327 8852 182
25535 900 417
27113 23633 842
22063 15823 362
6145 21764 502
11044 4974 143
20555 28035 259
18049 12381 646
23734 10694 398
3904 448 342
26900 27304 16
18988 19104 687
14920 8522 57
23548 3543 492
29298 17085 522
4720 29282 42
19509 26772 205
6212 7724 453
12534 10422 85
26398 3089 369
20777 15795 817
4488 24051 441
2526 24586 687
12770 26768 961
20298 14449 387
27318 9672 714
11002 14316 749
20496 17201 2
25516 22212 240
8379 15242 396
7209 22284 22
18868 17345 452
114 2251 701
8870 29013 797
24364 8140 604
22355 27513 264
13895 12803 878
21263 12586 431
18835 5731 264
25278 17184 556
3996 22968 197
28945 29040 68
5980 7489 949
17512 19170 212
25760 8159 77
20868 7175 642
12113 25443 504
29496 25495 421
14524 18395 231
10531 6218 215
21963 2834 62
14944 7754 299
21515 16083 165
15761 4501 270
7445 23589 327
263 4417 750
14815 28275 893
2792 25554 818
27474 10906 338
5053 22100 952
1136 7704 273
11096 0 483
12352 14888 640
6212 26153 114
17295 13452 996
24608 18168 87
17497 18121 757
4135 3153 80
13109 28895 479
27777 28483 155
16712 28733 557
8797 26677 290
29444 5505 534
23026 12623 314
4684 26860 611
12542 5258 381
2395 16894 364
16373 28270 836
1569 1852 184
21909 23545 65
20689 3455 862
28721 28270 498
5020 7967 162
29564 15255 971
10297 6235 270
8871 17540 266
9817 25970 843
8322 15907 462
13247 7023 119
22029 22763 767
20760 26269 164
8502 20560 422
17295 28019 121
14552 5078 226
28997 29219 65
23784 17990 582
7513 20310 525
7371 7858 878
15999 24049 110
7497 12124 578
10153 29668 35
22048 8324 784
208 5611 914
9641 6748 639
20636 901 761
26886 12511 750
1200 15304 483
12780 192 250
28871 28509 640
16116 14248 35
2856 25210 411
14525 6324 302
6864 21346 770
15104 9306 480
4977 29538 962
4512 27276 226
3773 3730 342
24324 25545 68
7535 21772 667
28800 15172 690
14511 25143 15
3039 22429 590
3317 29036 251
27133 20416 460
10999 5633 601
22842 15094 442
16792 25744 648
6332 19164 830
6389 13046 942
27481 10294 91
9374 6761 398
10987 26551 439
17283 21862 696
7800 2864 433
15155 7879 728
4853 28967 227
17112 8476 200
16161 13416 539
17478 8688 436
2609 24196 91
14828 19108 511
25408 22105 374
7741 28451 968
22297 19416 60
21062 11662 130
20002 7132 54
29310 16145 124
28630 816 118
25363 18835 635
19610 10611 260
5136 22666 312
25900 12698 320
24511 7974 38
19890 29266 649
8284 19190 856
20597 14100 562
3142 18481 881
29976 2718 283
2365 2972 749
11702 3281 740
13177 18991 176
18345 10103 902
6229 11476 821
28278 7825 557
15357 21679 896
6612 28590 852
29163 23408 861
1046 14903 742
18113 19623 442
14600 5655 631
28016 14054 807
14291 18680 392
17856 23253 706
5103 26115 94
19001 22154 23
15487 21319 331
8880 19982 624
19732 2920 142
29580 26637 314
26568 27361 153
6526 27957 598
9757 7555 299
2783 1728 833
19129 2425 610
1625 28407 916
4484 13582 488
4124 3016 626
4805 19118 441
24652 5556 481
28654 25347 612
7290 22897 272
23680 15221 950
22977 27026 891
6547 25209 973
10429 28851 204
273 26923 814
19214 27810 489
817 18203 969
23983 1788 564
25695 11774 472
13776 19284 814
4605 12884 538
1363 26495 323
15922 18933 857
3970 9966 72
28836 12802 610
27152 11595 288
10559 23480 243
24708 11610 130
1419 16180 456
9098 14661 124
4794 17025 281
27792 16997 727
5400 28253 513
3750 23566 366
24422 22487 646
14506 13556 809
1127 7321 515
23278 24146 137
15072 8617 791
17206 25034 41
12209 24452 165
13109 11597 202
13665 20168 238
25121 25916 255
13992 25523 531
12975 4915 370
23506 2375 768
3946 5036 451
27626 21514 817
28400 4843 858
20168 9619 537
10290 4244 613
13374 9899 726
24092 3644 408
22509 2638 639
2414 24553 811
2446 16587 979
7136 27519 484
7142 1198 452
18283 28149 337
14479 1245 731
10485 17226 768
26832 410 976
21492 21431 174
19360 19490 942
19966 12013 824
24601 26867 582
13988 11465 148
5302 16016 857
22478 16071 662
21076 15663 989
874 6525 856
21116 12536 320
11165 6419 833
21703 24495 443
24439 3898 403
12095 17150 590
21975 18988 767
7307 5444 733
26896 25918 344
5872 18509 604
6300 23571 545
7853 19027 425
5643 21732 639
3432 10220 752
13444 28066 950
20241 26396 104
7261 21179 241
5022 29267 432
25967 26912 178
19275 16008 214
13564 16431 365
21268 21633 960
314 19766 464
11773 14203 84
25924 21993 443
14561 11601 960
24955 8297 430
13297 22594 705
16257 3499 639
2230 27426 666
7713 6615 400
27235 29257 396
1963 11763 807
7757 21927 858
12769 3423 472
1336 3632 236
10021 18284 744
23142 22211 887
18598 18550 540
18638 20977 931
28830 14692 615
7541 11605 713
13189 6226 40
19330 8584 921
16751 14964 196
24560 8076 667
4760 20525 694
2399 20204 605
8553 1595 571
16362 3378 74
18492 18359 251
29275 21473 386
15135 26622 606
13913 17813 159
1244 28364 52
16084 5871 743
10308 3615 693
12868 13047 890
3124 18132 720
13612 16839 62
20579 17575 416
15244 30 887
13992 9285 480
7421 13940 818
26559 14924 126
12297 1757 742
29805 12124 36
12554 12113 427
29287 64 886
24750 4 717
23261 26211 528
6753 9738 572
3487 14567 831
21615 14617 96
11333 29874 231
5561 6552 407
19844 16710 323
23667 5313 772
8325 25226 615
22447 20608 175
2100 4515 361
3653 3747 649
2977 13715 125
21031 23217 422
21001 22341 955
6325 4181 903
22571 20355 66
9246 23554 1000
11393 4718 133
2091 19482 922
3797 4815 543
20458 7507 607
26135 23390 656
910 4673 488
28898 11095 188
3234 5467 49
2221 11483 933
17528 25203 497
2583 5629 455
4188 18359 815
21480 26544 477
4465 5800 401
22789 25029 963
23325 8596 79
22457 25002 681
17730 17616 187
9954 2577 159
3953 24503 100
12432 2419 30
13442 8992 934
22180 2378 385
26868 1000 60
7013 18014 291
10949 26471 308
4871 3420 234
27592 2703 307
28152 25435 278
4116 4164 488
7831 20977 508
25801 8738 119
13112 27634 395
26674 16807 656
10952 5230 522
6562 1029 355
4736 24924 502
2999 3289 460
3598 16198 278
12760 29972 791
2558 20927 236
18708 10833 902
26822 182 968
12982 11514 872
10232 28568 133
1298 26172 746
26531 29868 310
483 13242 92
13146 16410 437
14034 543 520
19801 4556 567
22189 12355 49
25051 7365 363
17423 17564 271
286 23070 533
13447 9995 726
26166 22331 625
4017 20673 380
18146 10520 626
27877 3389 698
15173 19005 173
5076 20994 771
29140 18603 233
20213 9421 116
17964 17074 463
2026 24554 333
24642 11231 361
14113 4221 386
22316 2735 604
15730 21364 284
28556 6049 661
12929 17067 502
6570 13759 626
1461 8808 67
27475 25850 664
20416 568 134
990 8174 206
6956 19745 889
28379 16411 424
2112 4917 699
1694 1422 26
22071 22686 39
28542 12304 351
10249 24269 668
9472 2183 339
6432 4843 927
15347 24693 354
8938 18647 852
11031 11885 818
3994 20506 296
3693 28262 891
22317 27626 241
19520 25069 513
28032 29736 632
8187 11244 866
85 2991 919
2557 14077 672
14884 17090 601
13217 22994 308
6286 22368 380
20162 19270 576
26057 7468 999
21739 19970 410
11814 3305 85
22432 4583 817
13618 11613 280
23746 18960 870
4539 5515 433
12098 28781 551
12252 29122 453
23538 11036 89
7251 11796 436
21508 16248 498
4707 15602 97
11086 1115 880
28663 19975 903
22979 19749 942
9691 5661 71
14216 23256 768
15996 27739 566
26781 17646 607
25814 5347 897
27824 29836 399
21872 2515 490
20844 27409 137
21745 4003 206
672 7144 654
18303 10790 440
3942 2020 248
23451 16068 515
3055 14508 692
27709 1817 385
26716 9746 76
5802 13644 438
23939 26911 828
21039 3352 659
10280 15449 639
817 16815 935
12592 8716 994
1348 25715 737
7208 378 993
10165 28839 87
11917 6496 785
7802 3041 591
8601 10134 715
17158 22592 685
28518 5308 137
25814 2924 833
13056 18581 195
1249 13034 127
3092 9573 391
26423 22269 979
23204 28381 920
25893 15591 966
19143 19597 366
28997 9724 291
16505 10652 159
12144 24194 886
27742 13414 5
6086 17342 39
10238 19030 765
25462 13252 772
22571 11137 80
29229 27109 745
5690 5166 958
9880 18314 384
2220 12196 611
9171 2606 562
2728 21896 581
2955 22473 133
28243 27233 292
25909 17992 310
27381 18916 396
7223 10132 463
4297 4734 921
151 9672 364
26904 6148 966
14234 23712 436
23675 28600 114
28271 20470 601
13524 26207 324
25451 13041 78
2042 677 1000
22423 18193 885
27245 25487 269
20084 21526 624
15658 26519 246
7314 361 630
13982 15411 121
10204 17212 391
19103 28811 327
26994 21902 292
10536 26281 920
19321 18491 939
8074 15637 425
5835 557 637
4887 9683 582
17062 19623 718
6278 23843 384
8991 28052 809
19034 4675 179
13168 27666 85
12149 11585 493
27361 15139 552
23136 4155 592
5875 29410 44
25539 2278 832
20107 14951 707
9120 18826 123
25721 19875 390
19460 19742 652
11941 8539 953
12972 16336 55
18421 3798 165
16420 20351 66
19601 7410 59
4974 23983 750
29508 18071 167
4983 14388 881
10510 19593 18
12719 1400 377
15809 5025 930
12605 1281 421
9921 22805 759
29408 345 529
27109 24198 761
14568 19581 685
2684 24884 603
29943 21953 814
15817 9916 576
16800 23197 698
1512 8504 168
24543 23683 160
7326 26592 172
14520 2471 708
7489 7990 392
347 21476 381
26726 4794 551
26334 3283 782
3463 28394 252
10233 22444 946
6022 10365 762
15664 5545 598
5878 4260 464
17680 15965 621
23442 29525 883
10715 10725 526
21310 26407 725
3868 26997 418
16427 6357 66
1194 8846 350
26595 19964 335
1755 10732 477
13787 846 735
14625 5182 478
27841 15742 448
2445 22671 296
20215 28911 390
22646 12456 134
11246 24604 252
25368 2225 485
3075 27109 813
28183 12317 569
28560 21006 855
29771 27155 533
9424 9645 653
12413 26673 57
10639 24078 124
25545 501 834
17472 6116 727
29962 21726 964
7659 2102 616
7395 26079 779
28599 29866 105
17574 18882 880
17053 13573 774
23688 22190 758
16071 25099 289
20085 11984 939
3525 7922 91
6779 12272 75
25695 8491 130
8650 23597 814
6574 24186 293
14130 903 245
17957 4464 61
28969 27276 690
726 1391 280
8546 3617 740
20968 16278 849
20504 12831 588
10626 24288 793
22191 10406 698
13920 15298 150
4653 15643 173
17773 4559 766
28683 26286 499
19285 2919 190
29530 28994 205
5176 1644 645
4802 17767 760
13152 24812 341
25219 3995 497
25843 25896 629
24837 9795 389
25908 25844 682
5176 958 506
22709 1157 123
4861 1850 402
29324 18880 159
25152 1411 561
9403 7859 45
8460 19129 247
8813 7948 110
17752 1786 744
5967 17853 436
27082 21862 475
5470 27990 188
26380 13476 642
28677 29520 229
21294 20829 39
23773 6157 339
11077 3106 709
27421 25510 264
18705 12281 526
14427 26070 490
5754 5458 79
8892 27184 550
18088 15030 608
1443 29691 855
27833 11440 431
6674 2675 148
20130 20109 703
5319 9462 952
10439 26127 430
17272 7966 37
28189 25920 361
14802 22964 862
5480 11026 493
5919 9243 351
20861 10462 760
20648 5138 364
2670 24577 344
23043 13182 460
3191 2023 279
10611 17919 399
3644 10758 156
25532 14883 140
440 20765 230
9951 25909 189
7953 501 77
9584 29477 881
25068 15168 255
19826 18530 163
24774 24262 171
29315 15507 3
4016 8348 545
25334 22904 834
11771 29835 86
16668 28863 301
28371 4686 996
303 26595 361
16631 17124 23
11681 28892 192
23569 4117 943
27806 1100 609
28991 24188 505
24316 21062 870
12904 9313 167
4120 22995 421
11689 9220 936
28543 18250 130
11492 11856 777
14701 11579 728
14572 26635 169
8886 24900 654
5873 16672 866
15641 12689 796
22299 10734 378
22296 8350 381
20006 25511 5
19542 10924 624
23140 343 971
19263 9282 874
1548 5886 501
4146 20991 337
1217 18420 958
18782 126 248
16814 23527 67
4067 6208 901
23603 12385 922
4765 22250 332
19051 4209 457
6503 2166 828
14724 11633 46
1587 25285 168
10795 21712 800
25781 766 688
13928 28098 396
7007 7857 538
13077 14110 631
8887 28700 310
8818 17280 476
5161 23288 196
7610 12006 133
11465 23 404
2162 18817 307
25783 10576 396
26110 19600 362
29720 26663 206
11349 25165 51
18886 441 967
14173 13278 105
21741 5650 612
17898 10293 693
18032 28278 226
3514 16575 312
23886 21397 215
16871 39 364
17754 26498 537
18567 18080 139
20676 21395 972
29252 6855 708
25028 17378 635
11745 26527 366
24913 19063 247
14629 27977 947
26026 27805 766
25009 15481 489
29038 14849 516
11378 7170 167
29299 5381 735
1990 4734 465
22127 674 585
22907 1317 64
12731 2952 885
4031 2283 780
8151 15628 32
8369 20337 262
24293 4322 207
17318 10340 701
5359 26952 12
16979 28612 822
26823 13127 770
806 12455 802
16048 7889 762
8792 11556 538
13287 23062 239
26014 25038 578
29880 7181 323
24118 22433 767
12771 15179 5
9989 29600 82
26137 7381 582
28313 26950 259
17842 29617 187
13674 13635 986
24219 28364 555
27076 21222 182
7212 11459 345
4694 2248 572
5436 12239 749
19307 3889 344
6283 27412 303
20799 7360 732
20675 6728 480
8360 15481 964
29451 18689 133
2665 12037 870
15774 22705 275
9887 16991 699
13505 3789 517
376 2405 476
29945 7472 399
21222 6946 188
1678 29560 262
26639 13095 103
9722 25370 242
23717 3068 498
12294 8827 363
16632 18323 537
12051 19038 365
4084 21638 318
3168 3527 851
29108 5215 185
9392 11252 292
7102 308 855
1620 12433 946
1078 20079 702
17140 9116 23
23685 14208 984
26562 23755 488
29089 20778 807
7558 11107 532
29082 419 153
20053 25071 601
26918 17274 386
5282 8847 632
9938 6764 216
664 1373 173
29371 28715 59
23989 6358 358
26908 29672 441
29622 20882 280
27199 20773 95
13451 20768 31
22145 19753 723
25378 23330 284
12026 29732 522
6463 21961 475
21037 3718 262
22673 11401 797
16443 20725 86
29103 19275 150
24469 22297 714
20402 28636 645
14332 27704 470
10380 11203 686
10426 10455 633
4182 13193 554
4058 28215 250
22992 22500 636
5486 16307 200
562 27522 221
3399 5860 155
14143 9460 337
18679 17324 209
17659 15061 668
22312 27975 729
11279 22801 555
1788 1690 709
1043 28847 371
18786 4011 506
21036 24120 993
26269 5969 8
28518 17862 590
10165 22578 622
25095 2922 675
27527 27264 246
8997 10938 202
4147 6816 537
26855 5670 909
21067 17981 141
2263 19964 189
14848 9192 705
11734 27580 894
20082 23488 498
25738 22714 18
22760 10009 465
23499 12157 371
20841 15098 496
7604 28157 865
27581 66 253
4366 11144 249
25847 28126 454
29862 20582 95
11969 20881 151
27183 17512 588
28208 1041 57
7163 13950 762
29385 16086 650
274 3346 169
26152 11163 106
12637 11166 160
14067 29605 876
24737 14384 915
1571 20882 849
5465 9460 297
13152 25508 473
11491 7300 508
28117 1771 418
21969 15806 521
28982 6226 133
5858 11434 249
14102 20043 679
26437 21002 403
14977 26035 226
13218 17845 988
14453 19170 454
27099 27634 666
4942 10273 436
18835 10824 748
28273 8979 204
12891 20625 953
29270 25262 921
16583 4742 359
26120 23000 914
26570 29336 262
20763 7089 765
18818 6030 35
23744 27518 472
14139 18601 586
20409 10665 228
19515 12875 802
20123 9547 615
19955 7582 805
13085 4031 801
10809 8642 652
704 5115 875
29344 11464 463
6799 11649 951
2178 2515 113
6591 7309 681
7617 28552 42
2813 25013 566
13265 12462 759
15167 18143 812
17624 259 518
29082 10754 905
9225 14402 928
17331 24521 982
6647 936 189
29232 29314 149
15863 7524 704
10569 23491 982
27711 4432 337
23670 3060 116
15127 17015 102
18517 8266 829
2845 19127 706
27094 29495 467
26685 2779 921
24174 13073 86
15226 29441 60
14682 11522 593
21139 23741 189
27691 24294 293
21074 29399 632
23867 7856 649
10630 29411 757
21567 4867 854
26621 9517 834
12888 2042 177
17325 9662 715
19265 13902 554
19780 14578 932
15655 15998 60
24497 736 190
7920 28692 709
1722 10101 65
3964 23118 813
23508 17070 156
28226 28638 259
20406 4282 715
6213 9248 110
21720 4444 920
12278 1629 749
8761 14300 753
1211 20993 55
12132 22757 789
3095 8322 222
16549 1949 243
29070 15860 234
25160 23179 44
2462 26842 531
3302 8694 856
18279 18373 295
8401 13437 402
22120 24568 435
26091 4864 107
4227 26363 292
2583 7242 270
26200 20231 787
7666 10865 137
5827 28978 463
5657 29194 945
29847 15804 869
29485 2724 422
12414 7857 807
4143 5991 87
266 24365 161
1432 26310 17
25968 14915 911
26856 17698 213
8447 26754 772
8747 1005 973
9091 5719 557
14827 28527 100
10930 520 49
28593 28052 689
26240 15270 538
20477 23937 373
6088 8649 430
14898 20730 521
9661 13045 778
27735 5344 692
21206 25125 64
11270 8875 558
4656 528 703
17533 28772 762
24122 22835 721
9710 16292 989
22054 27850 105
21612 16931 558
28482 21327 601
799 13336 548
6060 2046 169
14609 12120 308
20397 5971 234
5287 22620 346
24214 3772 270
8568 18210 17
10198 13228 425
2511 29816 103
25313 26797 511
18321 28468 358
13584 21236 554
2960 3603 521
20060 23379 234
24551 14014 971
15805 224 659
17099 2342 776
17562 2898 789
7434 26243 445
13232 2122 868
24818 2594 325
13655 21147 547
18613 10908 947
4798 25675 172
22874 12676 199
16398 4733 73
14351 214 157
8206 25744 304
23810 21853 637
6584 21518 969
10947 2558 478
963 11161 384
26470 273 227
23506 4976 311
25101 29715 484
24907 2163 802
17070 11032 367
29993 15451 418
6408 19000 573
11756 13035 916
26211 10389 731
753 23071 813
19746 5271 413
19024 9556 716
10491 27575 288
11886 17431 623
665 28728 53
23616 14854 513
29985 28141 400
11750 4865 616
26903 334 6
21920 29864 728
27494 12462 965
5354 2351 493
10030 5835 910
10812 26882 968
28979 21501 97
7336 18872 781
13674 3178 650
4514 28039 951
6819 12236 13
26309 22801 196
18868 20797 909
24143 3081 920
12588 10203 782
28024 20365 256
24181 28765 792
5765 11717 341
29576 8805 981
8218 21012 419
16752 8939 371
17221 22595 978
986 28656 757
26190 165 137
25105 9553 146
25751 22233 146
25706 18546 730
1676 2309 170
13003 24284 587
25120 6509 246
3205 14902 392
17335 25601 946
27259 27872 695
7761 3037 514
27583 2774 586
28136 25270 303
10247 20818 944
23873 15149 26
12852 20059 949
22152 19732 323
20549 23073 946
21492 18213 974
2520 7135 140
18432 3600 138
27959 8693 524
28600 10685 922
15416 28893 501
27445 22493 494
25115 8037 193
19431 16254 857
3716 21013 515
11933 28270 713
11399 19515 514
8334 9914 419
18302 8209 558
9588 20865 386
29519 5580 502
11652 25551 44
16346 2169 208
11240 2700 365
4032 22685 141
14610 28888 879
8519 1825 801
4934 28854 828
9680 6414 561
16796 1295 811
27899 10448 469
4028 21149 170
13155 24109 966
27677 1090 84
7742 1282 204
20375 20671 314
642 27495 924
7854 12394 461
13334 3036 642
19176 26115 651
22254 20752 483
15269 15953 261
26235 16874 192
21128 3098 631
28653 16821 822
29667 13639 208
25748 25342 899
19584 12073 244
24957 15237 202
3619 25108 672
17470 4380 652
9541 16618 122
1740 4104 993
3478 6865 923
27637 28340 608
13180 9238 662
9717 2444 770
4560 21511 134
11285 10145 889
28465 23130 430
9906 13179 524
25023 11577 210
25127 9530 188
9939 12299 486
25893 28719 619
17299 10764 342
4482 21428 524
16495 14515 723
17970 8869 337
27137 19074 581
7134 29930 439
17343 8467 790
9819 26837 273
22611 22307 506
17512 26375 807
403 10277 164
20881 16817 920
9605 27652 25
17562 29412 892
26809 12566 923
26660 18647 820
12178 22373 168
26466 12484 544
24956 16485 255
18058 20348 378
13183 11040 606
3762 19316 420
10563 10163 254
23822 10702 323
8384 8488 194
6793 9002 369
26517 20271 40
18593 6916 447
3846 10034 383
3660 17848 921
5171 28883 683
25301 18330 101
1944 17240 158
25351 9028 22
22570 22326 406
19628 3668 576
18590 21492 813
4463 2258 123
260 29063 885
14941 22478 334
16185 13333 919
29284 25590 587
955 29011 404
11383 28831 670
21103 27341 21
2755 6341 318
19780 5541 631
17742 22097 616
19511 2925 195
9873 20145 491
20524 20641 282
2043 15183 218
14539 21173 461
4233 24242 498
14099 2945 68
15349 23245 439
11764 5523 635
18098 14061 937
29354 11098 298
22246 24502 298
12886 15977 83
5996 27861 674
16636 11706 929
7151 20893 404
25974 19611 54
19808 14143 259
4792 7641 803
288 10176 979
140 12939 646
11331 10529 278
7125 8493 998
29422 16215 971
3420 5249 159
29458 28210 146
21016 6931 321
15772 21412 129
941 6512 682
24287 27965 138
14480 25047 825
24085 24205 557
13092 7360 274
21824 8804 124
6762 3259 891
19233 27140 784
18310 8692 633
28741 21084 996
3416 15588 306
9368 23418 479
3864 19555 730
25298 11943 202
6165 7840 963
29569 16261 223
16166 19970 301
23733 16375 57
26273 8475 591
11497 20962 241
1213 26606 246
23964 13314 546
27238 29344 242
18837 22322 215
23458 16247 182
12416 13267 625
24364 17970 162
15428 25476 672
7987 24169 343
11189 29788 157
11125 6973 233
7645 26830 992
14545 14422 578
28603 6171 70
13287 25090 854
14242 2007 636
7669 2761 316
4461 12148 130
24026 15711 817
20958 26233 989
20856 2185 880
10282 21153 665
29497 15846 134
26384 28980 363
16549 26204 910
29460 17652 522
3875 24294 452
24567 220 771
10770 19078 645
6515 4905 741
1474 14134 847
4209 16160 652
5079 19908 644
16091 26708 874
19015 19373 938
21038 17797 902
26906 20534 536
3952 14279 482
16627 2904 449
12284 18532 252
1875 6308 753
15892 12072 901
105 5652 349
13144 14068 132
14684 18200 53
26921 8433 507
4123 11349 881
27260 3528 637
7687 28744 465
4954 24698 343
7637 11192 685
22036 27304 616
28296 12567 973
1341 2103 857
13427 25752 457
20033 20741 34
6642 21323 303
8336 9487 474
5191 6858 229
21871 13128 833
24132 14121 267
21371 28358 998
16757 4435 71
18825 4488 396
17859 20534 554
23538 27349 685
24391 26098 692
24399 22708 296
4278 17525 897
24341 28518 698
1848 8165 898
363 2852 16
15028 6200 596
22747 15255 712
13225 16270 229
24562 7113 293
13436 7670 298
8211 26237 369
16721 9547 265
24330 29829 599
20500 23421 489
22615 15670 810
7927 25314 8
11056 22695 626
1738 15972 757
12190 19056 755
17019 13528 219
20341 27889 460
29398 16199 966
5276 17734 83
14348 16554 950
13175 9945 542
29672 16306 328
18039 12454 164
5497 9882 376
660 21191 794
21114 12837 512
22092 25121 402
494 22912 192
1943 17630 292
23852 6233 771
16347 25942 25
5755 5550 750
5677 18359 364
4375 19042 776
14565 29853 304
16318 5359 785
27251 28336 162
15026 21412 513
4350 805 177
11704 8950 405
27337 17577 586
11474 5830 621
22235 20876 99
16350 16904 880
19895 22930 387
603 27257 858
9800 21793 841
12922 9137 28
25835 22889 867
26318 12340 882
17285 29039 52
13792 16455 319
17883 11092 837
5741 892 603
13234 9324 710
25065 13186 377
28724 4817 421
20447 9837 676
25867 20157 433
19430 28096 710
2888 12060 427
926 17872 437
9729 41 512
15089 18602 822
25491 12311 111
8932 12548 126
22579 19737 675
20511 13619 585
10945 5728 996
3372 5207 746
3636 14865 281
15269 19332 134
12382 10246 223
12963 8905 253
29515 21392 153
27044 22505 53
12899 6035 602
11137 13794 747
16774 8649 498
27386 26239 300
25625 29706 268
27187 11015 963
13446 4633 372
11315 18708 695
27770 3828 596
2104 11231 645
9977 26278 638
13778 18420 196
26780 1626 414
3746 28206 672
18005 12434 330
7718 749 942
11000 17718 412
15470 6700 487
27336 14894 269
19699 27461 360
22624 16668 169
24900 10373 868
25570 25683 971
28823 14227 12
16941 24396 530
22646 24124 822
28553 744 403
23435 6312 92
13362 3303 854
11864 2352 703
21835 15110 438
14646 5145 865
26314 13466 456
19739 14430 137
20682 19884 638
16078 29348 186
5722 22081 938
13827 20285 818
6035 4742 413
5107 15409 328
11768 10170 875
11572 1142 549
11271 18052 315
15814 19335 687
28143 524 628
23570 7624 51
9052 8127 933
26870 8333 399
3869 18419 600
17252 23146 826
2352 21197 314
14761 24634 116
4767 6264 475
8485 12431 229
29422 12779 855
22997 12500 107
1308 11277 605
21589 5134 108
1731 20289 789
16283 21262 351
20636 3651 150
17603 21375 757
26395 29775 97
16973 12869 770
16813 27229 468
1797 24760 123
12769 24910 541
13517 8489 271
22799 4155 170
23418 21543 214
3794 8166 294
1576 1958 512
10328 29991 836
5916 14699 723
14261 28271 710
18892 1898 443
25965 1243 712
12623 5831 294
16153 9941 226
13603 26122 483
17240 15197 215
14847 28930 437
29946 26209 190
27729 16404 348
28756 9664 685
27139 18580 286
18391 27417 671
8915 19947 262
24232 29444 468
20001 16273 820
7885 13595 57
20669 8956 254
4680 7255 736
19988 18082 358
24002 11969 27
17017 5307 114
25699 22842 103
4636 23773 41
21043 21608 320
24661 6639 715
27203 676 823
11704 17787 847
18069 13120 119
27150 8490 736
12684 15163 44
13377 11363 423
2571 18969 317
29864 21256 792
25077 13117 874
2191 15201 271
19466 3810 945
4054 7955 712
1125 1777 888
3913 27769 544
19907 28542 40
14540 2024 278
3190 26216 550
7327 2960 585
6125 5293 211
15177 4038 757
24007 10578 776
28761 11718 950
4878 8530 190
16136 9045 651
11084 1902 331
18097 1858 843
5523 2746 34
16065 10113 591
5445 16094 928
27913 10944 75
23334 20262 381
19229 16330 110
17997 2516 471
11992 18650 342
8776 2335 904
21213 17466 304
23407 14317 710
29261 21363 378
13140 9472 537
9808 26545 334
25096 23106 41
28339 14734 856
17958 11755 506
20927 17154 959
6998 20907 196
24399 10578 755
25960 14952 610
9605 9510 172
4102 296 543
12965 22067 133
18630 398 251
23615 11022 224
5011 20804 825
23652 2518 35
4742 19357 700
17282 22361 356
25406 16227 376
25696 4268 778
26619 4183 911
1695 12656 250
1048 9100 456
28109 12338 186
5828 29557 805
26313 18100 552
19674 11616 250
20176 18724 785
1959 2297 649
5896 11204 407
1256 22607 983
12157 23371 931
10965 11442 66
16289 373 101
10649 20182 934
11078 22200 545
4968 27610 845
3209 10731 984
28148 29391 50
18669 25652 151
5003 23008 707
4783 27230 492
18530 25062 159
26 22124 795
1166 13874 15
23439 15048 878
14671 12060 782
15682 2495 923
12633 13935 698
6135 552 922
11485 28600 639
11555 12996 893
5403 172 434
26040 27879 562
6609 28243 302
11325 25356 645
21069 13040 664
21100 19286 176
25598 26649 554
6949 22741 659
17377 1609 570
14830 23807 359
11969 15666 122
19714 22119 971
24398 2635 201
26766 4259 700
19475 12143 64
27527 28909 529
29641 11921 43
3188 1050 898
459 28311 539
14217 15585 196
29592 18890 507
7771 8388 439
13909 3985 455
17061 27690 434
13203 1242 711
12763 9495 361
14007 28877 760
26527 9534 308
2814 21296 434
25814 23949 941
20550 13197 607
9882 13457 844
16316 29985 523
7368 12522 49
25794 26138 259
7831 6989 268
14718 4503 167
6089 639 16
12342 1016 564
24363 24656 369
27247 16262 331
1016 28677 822
1075 27483 789
26157 2924 696
205 14944 300
12637 19568 404
23575 4241 200
22329 19704 928
15932 11506 162
6999 4480 703
657 2319 158
28659 6422 592
10144 26658 250
29188 26988 484
8208 29865 742
21005 29982 770
8565 26206 227
25904 988 895
6652 17893 510
10715 542 360
23423 17579 915
451 3777 668
17108 13837 560
15867 11972 981
23234 12044 387
18874 6291 885
18822 3891 527
8047 14363 720
25748 22416 352
19029 27329 446
5303 16576 723
20403 3032 789
3799 8101 580
13392 8768 349
2614 17994 288
21182 5075 316
27 17623 93
12420 22445 525
17135 4937 133
22197 23136 558
2293 27472 251
5515 886 213
4926 11945 276
11174 28933 661
29494 24502 240
3553 20079 69
22048 25181 589
25132 21889 291
27171 9755 435
16763 19577 593
3354 16749 657
28346 25208 630
27763 8620 53
19008 20847 705
14500 7557 572
8222 19321 50
12363 20169 144
14454 16191 599
16239 9603 409
22302 23594 672
23834 8821 93
9662 21375 275
9159 19844 492
27596 9644 950
2711 29885 645
2332 808 76
20099 8415 100
10345 13054 887
22032 24697 138
7960 9613 343
14591 16549 448
13380 6612 396
5365 25374 271
29614 21750 437
23106 2266 436
15093 24364 194
5278 2958 685
12532 21602 904
29093 25427 356
19903 673 342
15712 24932 887
21613 62 150
18866 2008 1000
14701 19399 679
25246 26341 288
14365 15551 778
27571 12335 968
23450 27388 27
27370 15984 132
7150 10158 607
1572 24035 922
14501 4993 876
2785 3588 860
17849 2207 814
19622 22214 362
8250 531 44
1031 17525 838
24749 22206 562
10307 24843 345
24644 25622 775
22515 2303 293
18201 27211 410
29173 2515 217
28092 16964 345
20565 14624 700
12215 20452 431
17955 27813 823
14515 24298 136
616 21463 785
29108 17615 438
18613 9988 658
26893 15695 730
22872 28915 656
745 17093 920
13553 10314 212
2062 18456 145
2186 2341 196
20430 5690 960
15997 7127 335
16104 23925 510
24414 11690 669
23054 11891 909
19233 11969 417
26766 4175 861
1483 20138 423
11532 27813 881
21797 27586 611
2683 12166 728
18203 23975 688
28361 28456 185
27527 11628 14
6044 21563 126
15588 25865 548
19725 10690 477
9622 14229 303
1289 19176 5
15922 18514 700
23172 26041 674
3468 9470 29
20636 3482 669
25709 18086 412
22248 18507 319
1111 14637 672
10762 472 191
1934 7973 956
6069 26118 837
15025 8823 140
13433 26326 446
4848 12058 650
24963 26156 755
7820 24297 814
21283 19131 565
21308 16037 293
3903 27630 160
1561 23530 423
13939 29645 2
28395 2715 917
25560 4294 258
15061 7366 7
8960 10569 585
18066 9581 633
12621 14393 439
9261 9824 276
27728 13586 395
28971 2495 961
17780 9839 570
22612 11628 594
23659 12201 905
28332 10293 110
13571 9267 464
22734 26556 981
19161 1437 523
1884 25810 734
6774 29807 467
11737 6656 61
7442 4108 622
2176 16435 988
4495 8892 726
4194 8168 505
7062 17691 78
22678 4052 120
14016 14036 171
12615 21410 808
28169 18977 184
757 22590 683
9913 27778 370
19405 27075 643
11394 2370 683
13773 26069 310
11869 8444 2
14008 5396 647
17144 25088 823
28588 5944 635
23592 22374 477
10561 22589 170
29948 7906 351
2824 20592 651
3285 27476 447
15099 25202 772
23006 23506 499
23131 29014 57
3661 14348 983
16949 17482 856
10254 21757 42
20674 21354 752
26841 6100 73
5094 24676 282
15352 2949 614
21813 27632 705
47 16991 531
12044 7550 203
7899 2315 80
28643 709 679
6178 20340 719
8102 8697 971
4022 3955 285
17210 21423 807
17293 29151 129
987 20569 118
27227 28572 137
19645 27355 169
28418 25770 137
18802 761 579
250 22503 651
11969 10309 100
21767 24792 267
4775 11083 681
29267 18307 73
29751 24058 642
25359 24731 373
16810 28672 2
27308 26488 638
16153 28727 47
7726 13089 72
5831 5053 397
14956 2811 577
25977 13747 296
11920 20740 763
6159 28202 46
28127 25040 455
4340 14930 201
11322 25552 548
10793 23208 1
9508 19909 804
7870 29035 232
26221 8622 649
17074 15229 287
13801 688 950
1912 15223 80
10162 10710 454
16867 14882 600
7131 21517 138
28270 26433 360
22210 22476 191
16887 3525 178
11963 28042 436
24011 19259 118
1159 27325 432
12870 13686 896
12497 5514 417
16706 405 718
7974 8695 812
29855 23807 15
21992 13658 167
14463 2986 871
27970 15129 619
17619 29071 61
22419 29985 560
14252 12247 567
28155 22572 199
19893 2993 858
29033 15330 826
28432 17904 326
11212 7166 193
1720 10060 844
20044 22973 146
20553 29006 513
9072 1126 943
27042 19944 693
26100 23775 722
22460 730 832
19976 21935 177
9251 16960 712
27657 14763 473
29729 16636 114
8961 5655 196
6415 25521 845
27424 11507 706
28350 13211 759
21081 9036 950
27734 11964 80
15599 25553 320
17960 13297 263
20321 5982 267
27862 16258 25
402 26252 560
24821 10098 465
9082 18800 168
26917 7576 871
21289 9408 199
18181 4161 830
2115 308 782
12127 11265 478
18984 15207 870
16297 6799 143
22366 12384 1
11084 29767 779
21156 11658 315
19082 6507 556
2289 15604 322
13965 26358 685
6113 9930 538
3339 7308 142
27635 18520 785
17735 9092 951
21715 6620 307
5269 20730 495
24869 29688 151
14190 25173 699
16930 19581 918
25947 8311 313
11510 6065 915
28753 22764 369
24340 16296 260
20839 3231 565
7984 18425 979
27334 6786 40
6201 11814 984
19419 25374 517
26679 28992 614
15774 11890 100
7207 28664 15
17109 13044 947
8266 15093 880
14011 22416 457
23362 19978 123
23947 16767 396
8351 26610 629
15146 22920 567
21493 12720 830
13866 23462 295
16762 4507 777
3627 16942 550
16566 6045 565
23090 6541 306
19393 2213 120
7578 19874 988
11561 23544 282
14360 14349 631
24049 11383 793
8732 21730 957
26820 27397 991
23335 19094 283
19315 867 544
7235 2870 306
11389 7959 800
2168 7449 904
22673 23980 389
21418 14072 93
14231 2518 304
20554 11172 931
474 23291 511
25079 28670 820
3943 2205 606
7184 28926 312
1833 25137 596
358 23384 604
13849 15527 354
5404 23242 812
1427 3923 853
1905 20755 71
2916 6346 987
27881 13348 732
1749 22937 270
741 14332 833
22380 6273 827
13110 29350 300
12348 20281 140
19844 26719 672
9299 5687 421
22933 2001 19
22610 24238 898
17953 9263 554
14123 8657 5
12225 8786 853
23098 21692 405
18316 10170 380
11962 23006 505
5304 21506 696
22514 17697 207
1735 12740 240
7099 18806 543
5435 23010 523
26875 23533 993
11711 24828 814
8398 3636 119
14138 22817 756
3349 8798 844
2645 25491 518
7212 6252 722
27010 2465 337
17160 22409 801
10542 24929 796
4695 10705 163
6850 29038 162
25837 8384 263
7635 8244 565
12981 28319 348
29914 27796 853
17015 23733 390
2576 16703 418
28749 1790 988
4837 4444 217
10248 219 442
787 16365 451
19650 9375 433
16583 19625 423
15635 1747 722
1651 9672 646
1553 16588 793
6336 21065 189
29835 16993 417
20261 26812 792
19630 2195 653
24955 27872 629
9536 1615 549
8245 17333 506
22954 26713 471
12044 29715 335
2374 19955 430
25869 8706 824
23425 10529 547
3757 6298 594
22345 666 489
21156 20019 422
7923 23677 44
23654 14133 16
10142 21093 190
7998 7939 107
4124 2924 777
18352 27124 603
5478 26011 606
19285 28744 891
12210 18191 328
16179 7153 386
23054 822 137
29380 17642 168
13425 13689 513
13395 8990 913
28667 16782 767
18040 17706 105
1709 22741 87
8233 13706 232
25445 10611 205
22076 14393 621
14969 26972 514
24070 15794 266
6379 17589 554
23233 25165 962
17375 17956 432
13209 11318 776
28970 23392 739
15000 24281 865
729 5854 149
7279 22730 959
775 4135 284
2379 1728 36
21758 14483 865
15198 26598 792
13470 28680 753
13504 17398 75
2403 13771 993
19374 2301 943
15314 27420 572
20155 25396 323
25057 21983 864
18967 9464 518
721 24219 966
23468 977 248
9249 14863 576
22746 26446 619
18153 2976 3
4940 14829 932
12375 14657 427
24474 29135 967
16167 25841 489
20297 14222 321
24114 24469 471
6340 3319 664
22162 12026 274
18278 24937 115
15607 12791 545
5281 21181 873
12681 15639 355
13891 10780 850
28134 14281 705
2876 17483 488
5316 23075 444
25357 9775 831
2550 26180 631
21903 1805 817
16980 15053 392
17284 23395 340
4758 9300 268
16838 28461 713
29114 2542 191
28822 15216 889
23899 11035 29
29753 3366 670
19233 25043 651
18010 26858 188
16367 28969 179
5288 19872 357
6791 28304 479
7867 22048 872
800 619 862
12094 3921 907
18639 18247 463
21784 19514 578
9124 27484 259
9557 2111 504
12542 2676 787
23252 29902 616
28537 26324 899
27213 28734 713
5226 28523 366
5225 22219 170
6857 5908 622
16337 18953 685
23600 24300 39
5341 24937 942
2401 2877 200
27138 21081 19
11488 3929 285
2094 13824 567
2294 2577 803
28619 20489 434
14014 26061 560
3806 14525 637
26908 17778 333
14469 17296 264
26628 14339 878
11888 24454 347
20530 20022 44
10560 23023 855
14766 1613 595
7367 23311 149
29375 15754 751
22956 6046 629
4760 22349 53
26653 28322 32
8886 13872 310
7084 21497 219
13120 28435 599
1729 25133 446
27779 16817 197
20950 29900 520
15291 16149 827
28945 12727 82
16860 3317 933
17331 25298 575
8925 7594 566
479 23915 378
10791 11665 971
14121 29229 390
8112 14611 574
9981 3232 675
27219 19951 261
17981 9127 912
29737 5761 287
10062 27576 792
2876 4432 602
24435 25689 790
23645 6672 375
24812 15104 806
17806 9887 586
14484 27966 129
13844 11618 407
15486 11625 858
25948 1551 766
290 25625 75
9339 25541 923
25065 9424 884
2520 24902 217
4813 16695 383
27102 17334 796
28311 28821 1000
7263 26222 615
17427 6800 814
16286 10552 836
22213 10161 258
16269 17299 436
1438 12144 92
29404 9387 872
1441 21484 786
29250 9156 121
6884 4491 290
13010 26775 445
28527 13726 144
23075 23395 466
14723 24648 565
11218 5175 172
19296 27004 682
8387 21576 204
10445 21829 102
27056 7895 304
17911 20272 436
28700 10508 149
29385 15800 572
6134 14102 787
25258 27369 199
2377 27043 892
25114 25823 487
301 13751 475
9264 16428 589
19843 28841 267
29559 26025 862
11631 14231 818
50 18272 380
11482 3238 945
24530 3829 483
18749 5977 455
28248 6474 1
9048 324 253
19678 11300 389
27339 28059 159
20447 20460 991
16259 911 440
12896 27231 143
21725 29119 48
24297 24960 176
2484 283 403
1996 20481 863
24958 20107 367
16483 414 346
7911 12236 49
17623 768 586
14929 22427 864
23932 13808 366
17542 22816 470
7703 7243 94
28775 16454 262
20374 15043 85
10178 10189 424
26829 28854 240
26875 2890 612
13110 6115 164
6678 5318 212
6788 22603 662
3428 11256 995
20266 24259 491
25688 11531 756
21566 27924 248
26662 12030 949
3426 26861 568
6040 22749 40
21380 26024 603
5865 13768 513
4597 866 456
5408 814 195
2638 18595 205
26714 27527 272
579 26000 297
12783 27016 519
23438 8640 192
19772 444 376
13162 14496 161
23600 25830 131
22354 8669 761
25014 8097 222
4888 15925 515
22175 20555 284
21722 14413 520
7419 13565 713
5660 8367 300
120 5041 898
15237 20157 237
17402 29049 973
28961 26746 345
25336 15910 661
15902 20658 545
27637 4061 310
981 22509 484
22420 23218 927
22212 14823 891
9762 18555 157
15614 25039 6
645 11789 539
16148 19649 548
7677 27668 839
4390 1759 286
13050 22435 31
11349 21055 101
9605 11907 508
17205 24887 523
22862 29214 654
7713 20 151
4037 16061 822
24153 13361 679
1819 1601 449
11649 12889 979
19671 12964 51
10495 29547 828
1343 21047 183
5618 19280 195
13291 9950 908
25012 23678 268
20247 19708 3
23290 6655 752
20167 27243 703
25971 14110 195
2529 25544 453
23650 4664 718
15104 27330 26
3982 12408 311
27739 17847 651
9543 6338 797
25921 23460 585
1946 23923 388
15786 23189 728
676 561 26
28299 9061 1
29436 5541 993
4196 9612 838
21374 8482 981
25626 22113 886
14360 16981 895
21322 1120 113
6925 26638 788
17179 23479 450
21610 28446 627
20835 3576 388
8212 11641 655
29135 9306 991
28516 10817 273
13156 5063 224
16406 26201 605
7579 21402 199
29598 15237 819
23093 3054 665
2977 17073 888
2301 25814 146
1679 885 499
27180 4462 356
9468 2547 605
8777 4350 368
21682 17649 638
5662 13464 894
12295 21649 183
20202 7459 543
26680 138 577
16804 258 279
15881 23785 283
24887 596 143
17103 24726 728
20283 7564 351
18706 24465 134
18114 20228 268
28301 14282 476
3113 7621 127
19318 12058 134
28494 16922 892
20357 28193 69
3093 26999 803
13433 6760 807
27883 25183 722
22822 25687 305
23401 29722 926
16839 23571 528
25158 10693 826
18302 29998 196
1871 149 127
10291 9945 349
16393 6714 454
19895 20760 600
13679 29882 530
26228 10960 310
28081 16525 840
25306 1487 534
1617 28356 474
29444 18812 631
19046 20635 776
4153 23055 926
15737 5849 486
29488 9109 785
19751 20725 297
5069 3663 284
1093 17194 618
384 29745 913
21365 29796 23
16264 3007 892
20805 10578 88
27220 23989 439
27150 14099 596
7707 3260 782
18984 23458 166
15953 29195 514
10210 3612 356
10703 13837 709
1887 13550 665
26908 9980 115
17758 21456 148
9679 10832 509
12757 12968 706
16025 14945 903
2712 19358 978
27494 8946 867
3276 25416 368
1877 25073 456
19708 17787 137
22644 1709 178
9034 21344 751
2467 17593 486
20859 428 68
27204 9662 579
10506 21979 111
7055 29874 210
16421 128 918
9285 22144 628
17655 28054 928
10255 18166 268
17168 15430 23
25317 13704 252
16819 3604 316
25683 2204 398
11116 5034 434
25200 1624 646
24466 29541 189
8886 1287 224
5746 16576 812
29842 6505 756
28538 7871 282
23791 7650 805
409 26791 647
17491 5923 46
18054 21991 500
907 25575 150
29283 18238 808
29031 24947 924
50 10690 885
23147 1635 349
21712 22488 773
15117 19998 920
28596 3009 91
29720 15304 765
6666 21351 171
15903 8170 239
1655 29676 74
25286 29662 688
29168 1090 743
29320 7529 601
21459 11193 184
18992 20497 985
25908 22319 108
13932 6477 926
3044 12415 596
12478 4087 155
8097 19345 861
12814 90 948
11968 9932 737
7116 17774 217
20952 22668 443
11032 25245 511
28605 13304 848
24473 21812 952
15728 13698 385
6189 28597 737
6241 27370 916
21921 17578 58
15507 23272 302
938 11630 418
12350 4099 98
11180 8355 973
27565 12776 914
18116 23776 984
13083 20961 480
18627 24052 11
3231 8445 805
28160 6192 794
6166 20320 525
5167 28680 98
1055 1796 700
18608 22652 218
3257 8652 602
4880 25752 911
10287 13402 854
20214 23108 610
11426 14445 335
5293 25528 606
11338 2777 222
4605 18246 153
26749 10338 609
13483 19919 838
16575 3988 873
23279 8713 526
16494 20581 755
15074 26178 123
11325 25252 315
26867 5333 379
24994 16014 443
3771 11029 891
8860 15852 21
1559 23862 789
5864 25381 110
24917 7190 62
19592 23687 545
5393 2035 539
17754 24124 678
27979 19141 135
14073 11634 265
6207 23807 998
7976 28509 474
24907 5081 696
528 29547 533
15808 26399 600
2968 20458 639
21182 8495 261
2320 29229 108
21396 12460 488
5067 23221 174
27841 20147 792
10655 23913 445
12696 2192 828
5801 25139 526
7984 20527 29
29799 21583 230
27351 16656 680
12727 2458 931
18754 19216 870
21247 6210 277
9325 28935 718
25324 1641 343
18821 17825 282
4838 10098 332
20261 3418 966
4804 13585 793
10539 9910 569
15676 19243 842
28435 19251 857
16018 27560 987
4111 12289 347
19526 12059 744
29282 18714 88
14153 18640 160
7495 5118 794
3080 13760 642
24812 16549 811
22740 20132 366
1611 15803 85
17503 22109 687
9903 21802 999
312 27362 912
11806 24275 271
19776 5013 114
13038 4993 486
18934 17814 911
15086 16036 567
11193 922 842
28984 23671 573
10019 3875 929
14059 15758 193
12959 28738 462
26171 21733 370
28184 21532 194
11211 20905 925
16094 21476 37
24328 20122 205
23623 24948 643
19761 15439 358
3176 3718 261
14268 3103 385
17799 3408 25
25866 27444 990
14825 13254 475
926 15667 795
19457 17120 216
1062 24917 848
8794 17039 242
12030 20159 554
14111 22452 631
13767 24583 726
27071 23367 679
21583 14864 143
11426 12678 509
6602 5312 52
9738 24070 397
12649 24401 743
11974 11673 804
3772 20088 60
26910 14997 76
7658 12950 134
16691 12115 228
23653 21650 540
17725 16517 416
15091 17520 359
5824 28802 116
172 19248 885
26455 19021 206
8533 19704 481
29491 28363 621
8816 7244 813
18689 10517 682
1321 25283 212
27497 17769 255
2859 19232 472
3861 25075 423
25435 28371 941
9917 7346 505
26749 28352 298
7395 29967 975
16701 28805 638
17773 10972 594
27553 5204 896
26407 23949 604
26320 1479 945
9099 6904 389
2841 18545 591
13873 23302 349
12849 4012 390
21334 12597 557
27489 11906 717
2141 27726 501
1980 14284 11
6176 12212 773
29900 24461 343
29411 14567 569
27266 15574 580
26386 21087 307
3469 8621 523
258 13187 113
25561 19018 331
27929 11812 78
25485 11173 999
739 3703 104
3071 17877 297
15025 19989 382
17815 8941 33
8076 12846 63
8353 13650 302
15840 26027 515
1654 23381 568
18565 22167 63
24868 7912 350
9566 7709 728
17769 25025 675
25120 14912 790
18071 654 917
19228 28398 905
19121 26439 561
14994 17832 148
21029 8237 859
28270 2657 531
23142 5891 576
13817 11390 725
25835 27505 411
4125 14610 131
23774 27195 482
6265 23748 706
12085 228 873
28830 25516 513
14313 11831 29
4742 14674 604
13450 322 779
16601 24154 598
23830 17473 426
2232 18146 112
9191 17001 313
21889 16138 957
12003 2619 745
25592 21581 834
25596 10755 983
23161 14913 198
13225 5231 994
5372 5544 619
2422 5691 547
3268 3796 280
12524 603 671
8524 2360 532
15740 18095 130
15520 12884 800
6380 5054 848
20726 16133 88
7586 2434 992
20418 19536 165
21845 23964 511
23623 23860 788
5486 23696 31
8575 3339 870
12723 10808 53
3157 10857 731
8694 4740 183
28011 4406 790
17086 11652 501
28763 17274 192
20966 15528 407
29827 12026 622
7941 22884 360
4355 19155 946
25128 4202 268
18927 19909 540
21555 21541 512
18234 21086 679
1324 992 576
5893 11524 435
8818 7124 433
22233 4265 338
5082 6997 260
4924 28099 347
20932 4844 92
19686 28756 863
10671 21665 913
1663 19032 514
3140 13934 790
25716 10169 282
23367 21989 34
13085 8299 211
27969 25006 456
17682 4410 538
16848 14205 894
24653 25598 182
17543 5376 369
28209 19180 435
9329 15093 630
25887 27808 200
22842 24488 793
20035 29706 660
3414 6942 58
3346 18974 589
27067 16709 975
14278 7585 662
22504 10940 113
7735 27712 307
28399 5716 606
16146 12218 47
27584 10457 232
1811 24785 497
26699 12998 883
29634 13366 806
8292 15854 698
6496 21944 800
17978 18545 746
17419 29407 551
4980 23139 849
12355 19708 952
15125 18785 705
11187 26266 33
26414 25025 572
21410 24949 198
18966 14773 485
10264 1186 23
6389 28173 745
8092 14146 956
7211 9314 420
21811 7726 428
24478 6313 973
9091 20212 193
23214 19325 131
7807 26993 530
15431 14815 594
10119 21003 99
22064 3996 201
24360 24262 740
15975 23250 904
5937 20166 211
29579 14370 363
8316 21918 354
29559 11613 824
5442 28044 888
4924 6442 97
17649 27247 493
18573 12544 940
29379 19097 823
17307 9764 41
27547 6369 636
18467 9158 83
11982 25511 409
27719 866 363
25230 19371 695
27043 714 436
24331 23017 500
22653 20999 965
15800 23883 26
25088 1307 888
21494 7805 7
1083 14581 952
5015 12182 508
8675 18030 381
28270 23052 689
23754 11502 570
8557 22621 824
26411 5089 904
10195 1161 145
26201 2267 413
24185 21912 475
9187 1495 874
8622 10640 979
18351 8936 183
17973 23118 520
28522 8459 783
10051 28993 505
28203 10175 812
302 6419 456
8962 19601 475
10437 8680 144
4901 17175 681
5454 2363 358
29078 29500 14
9493 14009 877
9223 28493 211
18518 21584 810
21562 20838 258
9794 5441 272
15997 26284 96
28360 2294 604
5421 7336 882
17251 26799 615
11201 13594 387
18062 27779 292
3416 28408 893
7934 15015 990
23373 13279 998
18897 14227 303
7619 28319 131
18575 19775 950
11280 205 666
29969 6776 821
10636 12770 895
24119 5425 187
4153 5080 603
15338 29031 968
12500 21685 334
24180 20090 707
6851 9975 906
17222 4698 871
21622 10047 663
29086 28816 804
6611 19185 739
1851 20283 228
28989 17320 67
16369 18921 509
11862 8345 216
2335 26807 739
18867 16351 383
6183 23144 975
9366 21338 445
14296 18937 781
15201 17976 543
18316 24702 685
18 20813 135
13909 9140 516
2635 20721 726
3526 28490 874
28709 16189 670
21833 914 463
13394 1412 748
27767 1032 130
19961 29806 538
21564 4328 80
29659 6914 14
17706 26855 956
4282 3653 453
11229 8124 92
19672 20648 420
9917 28744 246
25943 10701 781
23084 8743 802
3781 4059 575
142 25263 922
18872 23839 349
22023 27927 264
28225 14173 690
11161 7837 151
9380 15223 28
14990 11784 962
17811 17068 794
29072 29464 619
20340 23838 414
14202 16205 85
19235 11337 249
28464 25154 816
25328 16711 50
21410 2198 35
20999 17561 735
21285 2147 268
16912 13625 372
28172 14958 304
2421 6520 946
20491 29611 766
23963 28307 284
2418 23855 677
17653 13579 384
25976 12522 949
24846 23173 399
14152 28694 786
2726 12581 546
10725 29145 571
24690 18416 515
15034 11471 433
25560 16493 84
16797 2215 626
7326 26676 17
21034 14127 912
2536 27107 354
15577 20763 350
19903 27948 510
12331 25013 311
17833 25900 581
4609 3914 291
19367 12303 698
3257 9729 547
7591 15824 397
19113 29101 72
11965 24078 438
28878 5866 827
19465 14603 185
2942 9819 805
7807 18919 23
19292 24914 561
2883 17028 710
27944 23600 329
29727 3976 840
8906 14345 387
24287 10169 565
27739 7798 142
16851 25737 239
11154 7108 219
15450 27724 240
21519 8510 825
8518 427 174
16952 23382 763
13055 21636 309
23909 23385 893
20375 17251 541
16241 17132 197
21453 6063 787
23773 20239 39
20523 14793 206
27784 24105 810
8395 29202 309
9936 21289 88
11945 24070 361
7195 20278 169
3738 9097 110
27112 27153 678
12096 5922 122
14024 9506 754
4761 24158 444
5976 4904 732
2085 7322 839
25173 4598 940
29913 27138 279
5859 16607 755
15917 10456 894
29326 27956 876
27316 26320 60
27747 29067 56
27983 12259 535
15229 8373 991
27537 11701 285
3763 19452 312
6187 5144 501
2473 27648 217
18683 21584 707
3522 5878 706
1988 23898 323
7218 18476 575
29587 27993 279
24315 12434 852
7288 29703 180
9588 1414 762
23530 22102 116
23046 9784 721
623 17281 300
17535 11246 453
24869 4282 834
28170 21294 249
21140 26090 301
26915 29782 265
1014 1468 591
14762 23133 841
2937 5973 172
27968 2516 183
8029 1407 454
29499 2076 140
14377 3425 350
9538 4324 158
22963 17427 709
29023 7616 290
15457 9330 517
28067 422 973
2838 2251 257
25921 11626 265
1964 21724 224
27674 2953 571
8943 6961 677
11046 12926 897
23532 24391 129
8852 8252 237
15421 8410 603
17556 17856 884
26589 15699 408
22080 1680 128
4466 4942 82
22937 6098 910
19753 3240 9
6743 27367 640
14005 5314 505
9720 17249 633
25636 5540 697
7014 1396 464
4657 14303 579
6992 936 236
10691 6304 671
25679 3099 235
22191 24855 523
6243 12910 741
28181 4361 560
10362 18521 138
18999 5992 297
18497 13978 452
27848 9986 179
13379 17477 311
18740 26516 222
25245 16663 610
102 24392 287
8976 22152 721
2489 7692 956
25317 20452 843
11941 21884 257
17907 15164 185
29856 3712 330
4545 29832 88
27524 4403 618
28404 12809 988
10538 16832 159
12544 5148 687
14465 12788 49
29881 29298 474
28674 342 388
24108 16657 838
12952 5855 709
8170 24168 503
18285 9737 463
17402 26053 798
9860 21704 46
13282 18430 312
15680 9910 333
14832 20573 45
28161 11190 556
28567 29516 72
19768 4649 480
3736 26417 767
26640 19560 880
3388 8613 347
14804 26794 337
28871 1406 438
4393 29642 314
4164 8065 147
2086 23928 224
8676 6361 463
16040 29227 138
20242 8547 849
22625 13228 50
24834 5578 414
8300 27669 683
2171 9356 774
10299 12785 474
788 6514 165
18929 13023 812
22448 9953 435
1550 28470 699
17233 27869 801
22037 4063 489
10215 7847 726
1214 24330 780
23488 24975 486
14334 28733 682
25443 4437 365
28162 25977 453
13428 15848 932
26725 11851 123
24383 19660 568
23995 7274 321
28627 17816 466
17836 22681 347
22453 2489 162
1508 15531 949
10804 11592 530
29492 23253 681
18546 26931 984
5144 24757 568
18955 20119 989
23463 20594 500
28046 18834 166
26371 18213 379
23414 8721 208
29836 18323 761
29247 16465 574
6110 24748 27
20107 946 231
8612 6161 291
10717 13739 970
2671 607 981
11822 9782 153
28272 25293 333
18672 27756 828
2273 26201 169
16257 25353 804
24137 24500 956
5111 29030 316
27981 19911 778
16611 18246 979
892 11001 491
18086 8833 890
5163 1728 293
25066 29769 861
22130 3171 70
28359 23756 876
6411 13795 728
10832 21908 832
29295 1526 676
20523 4490 722
23801 23411 949
29282 18608 197
16493 23643 207
3043 14577 808
5154 1500 190
22133 26187 510
8977 11000 693
23501 464 524
21403 17632 995
7137 21137 853
24230 4328 76
16831 9605 336
24601 15215 266
336 25214 919
28818 8831 825
13258 19163 322
25302 16207 143
7416 2114 801
16530 1005 146
23985 23081 355
29015 6388 693
21474 22289 153
1038 26789 877
6372 16326 885
13420 206 739
21090 23573 41
21094 8777 208
7945 29117 576
28478 3880 370
10277 12198 751
3493 18305 107
2195 18304 967
10508 11882 734
8195 14845 176
8280 24565 651
7255 16477 486
23816 18398 147
29190 16470 519
10383 14208 1000
2206 10186 183
24331 25800 426
19632 10639 544
16352 29918 56
13288 22110 453
16787 8080 380
6409 22934 818
8839 5831 461
8027 29060 144
19181 7556 926
25287 3937 372
23947 7835 61
22989 5992 411
28613 3019 141
5182 13542 423
7654 9096 642
23009 5037 522
23218 3210 412
20468 834 172
18411 25594 681
13795 29169 320
6948 28087 60
12000 19225 88
7912 20523 694
11144 16335 216
1906 16268 164
12625 15467 325
17539 27715 360
10943 1849 346
27758 23500 937
718 11418 131
14958 26183 720
12358 27482 464
17982 24436 543
25058 7957 591
24273 8333 488
26331 3950 281
25766 2941 936
5824 5203 34
3564 6920 186
15359 10789 582
14608 24442 77
6571 11787 421
12238 11782 414
29392 3883 380
7325 12826 19
12455 5043 379
16456 6632 432
25258 20580 657
4610 3928 239
10073 22392 737
29570 28191 545
15829 25263 666
22151 22396 310
19206 22311 337
2388 6792 141
5959 24031 12
13719 12791 190
23928 5976 357
28450 12718 926
6031 11081 802
26755 22990 505
27293 26205 938
19026 8356 807
23167 1449 399
8757 25218 443
10209 23734 362
21960 24471 459
27136 1455 516
11532 9411 505
9040 5808 143
20075 6102 462
2242 19776 508
6831 27548 868
18156 20445 933
25927 12556 676
20901 16832 429
28917 11817 87
367 7177 543
11595 20562 809
4270 11957 498
6496 17790 21
27809 18962 989
10759 13551 920
13775 4344 215
3527 1808 583
15833 29153 692
28512 13824 601
26769 11504 861
1147 20599 101
28994 27384 991
13208 28118 5
28781 14924 7
10466 1363 586
7137 15674 924
7069 23054 195
4763 14796 372
8559 17340 861
29244 4896 74
26150 17359 120
14885 21912 589
7527 25523 517
27989 20506 418
7136 23169 666
17691 24907 217
18044 27557 908
15379 27232 435
19936 11671 222
22840 29465 464
19757 20834 824
16407 7816 667
8847 17648 83
19973 25868 373
14656 1677 966
20528 8442 266
12174 29963 527
237 16708 999
11688 28314 439
5626 19217 505
16868 3474 208
29872 20152 545
6886 26411 592
4918 16094 563
13518 24369 621
6416 17791 617
26768 11722 173
26532 5839 770
9843 4278 270
14427 17511 886
24324 10800 478
9231 2178 646
15619 10226 761
6656 6357 670
27431 2605 124
9354 12661 522
9140 3223 391
8252 28331 590
1740 27838 981
25932 17643 999
2188 18649 958
23553 28224 123
15869 11077 734
28927 27006 357
19710 17394 712
26379 9906 961
16754 19840 921
4178 23989 447
23125 26607 148
23755 19507 554
17673 3323 928
2873 24862 286
19201 14 779
28595 12308 809
13253 11118 304
1535 2823 185
22406 27713 630
20114 27305 488
14585 18991 817
28241 8444 852
21538 3143 399
1000 24925 102
3601 4587 845
21346 17695 918
1416 8918 429
16255 12889 661
29134 29493 271
4032 23815 119
10734 24358 211
26077 25029 627
25627 4979 278
15136 22352 778
19420 27922 691
27453 295 783
3438 13932 114
352 15759 455
111 9912 671
26850 1945 599
4758 4903 375
28092 11823 956
13912 26554 168
23951 8090 920
17211 7123 120
27018 6313 781
3371 14906 115
24096 10283 909
24649 3744 981
4208 24566 746
6243 487 721
13959 14677 283
28402 28246 23
5880 13253 704
20719 13476 397
17303 20064 229
21047 28949 155
18856 20242 435
2202 26939 76
24118 26082 507
18925 10992 158
2806 24781 498
8642 2320 152
15844 4955 448
8725 1774 632
16246 23091 467
13784 16981 221
15595 14119 324
2744 16257 284
19161 6144 496
18973 29128 152
22564 5444 207
17046 8461 759
9266 7144 530
7638 19832 572
1378 28393 640
10458 23941 343
22386 5493 358
29809 22416 462
11408 25050 61
5902 5542 774
14562 27982 749
8848 28273 412
1109 28332 867
29259 8907 159
22608 14223 24
13299 29767 762
3496 4543 897
4667 27253 240
4775 27562 355
29945 14209 949
15056 23752 816
4776 681 776
2533 16112 642
13572 13396 916
14042 21482 525
19218 10704 515
11754 16254 306
26743 12648 788
24575 18727 362
6614 2543 284
15965 29180 873
28509 21583 258
12977 7435 825
18783 5699 74
3229 27538 984
1654 15029 406
28211 26992 995
14318 28718 486
1247 11482 615
5346 28381 54
13767 4469 65
8568 29858 244
15898 20744 706
1357 29110 56
18520 29133 841
14395 9780 544
13852 2312 507
21578 9503 509
15984 21756 90
21844 9024 875
25943 16950 617
5651 3869 898
26600 6518 771
23953 3823 374
15234 15324 463
12817 2720 497
629 7228 985
12357 24402 574
8149 14935 847
6792 7090 392
17236 19145 16
12355 13126 16
5814 24251 977
19714 297 79
17419 21526 381
3010 26605 567
14356 23583 142
6183 22303 552
18375 8837 465
10989 10368 924
18808 25692 546
22003 5895 34
9543 27859 536
19449 1186 590
12633 17184 210
7212 29072 606
20353 6280 75
25586 1036 58
25841 12765 938
24278 3219 334
29587 3279 146
22447 580 172
27123 1066 234
27110 19000 138
20229 3601 222
29414 23361 223
134 23237 570
10530 16138 262
7931 13998 774
1374 17324 561
14774 25251 723
9450 20612 401
27877 22862 376
5790 10646 107
11511 18898 824
19968 28740 686
18604 24072 387
7836 10218 287
26998 17981 677
16243 10101 256
28403 4982 338
14355 10902 363
22259 21360 838
9553 1444 66
8248 12239 51
29672 12262 653
8565 18996 628
21831 4210 77
23391 8121 409
6532 6839 71
27814 21508 868
21307 8859 613
5420 16149 287
1170 18036 725
19282 2201 1000
9636 14253 646
17724 20764 591
21325 1964 924
22357 8345 962
8853 10835 98
15520 22325 490
10720 25355 405
24345 22464 573
20959 20461 15
6500 1864 32
10848 19471 435
13511 18038 430
26804 15379 831
15260 13733 10
8899 24957 762
9577 17636 36
20246 22349 64
25084 15356 102
7075 19112 456
10705 7230 108
22792 19069 725
18218 12279 234
17107 14141 680
21675 5217 408
22552 890 852
5189 10864 189
13104 1135 276
6866 6377 705
5597 2070 10
19276 15466 91
7830 26143 923
4198 19241 786
24333 6890 300
23399 16244 199
3692 20399 260
7144 632 871
1139 18310 807
24747 19955 86
21259 26329 442
12957 13466 118
17616 4737 266
21333 27924 81
29378 18032 208
12675 21014 436
3599 20989 482
26205 12296 3
7324 16428 623
23558 20641 979
10557 28774 886
27962 14317 980
25894 1056 957
15636 9707 131
11626 29827 341
7053 19199 597
5155 10256 96
25279 28974 311
7465 3375 381
12497 12856 493
22221 10077 860
1632 26751 89
12976 27647 565
28761 24 20
25323 27608 641
15574 4921 240
26220 8098 45
27207 6251 942
10602 22357 344
29068 15237 153
29770 3951 708
17367 18925 634
24370 12404 879
813 8812 388
8311 12434 18
12783 27687 355
17015 15172 356
16263 659 409
6000 2404 592
27874 19228 6
27933 14006 142
4409 21911 347
7173 1027 700
25110 6916 237
5019 23035 802
4276 24005 147
8955 15860 921
7988 24669 772
3780 26850 429
2347 20359 872
24394 24086 175
24862 20422 138
22596 24304 29
20725 15568 53
26172 11718 839
12539 14743 355
4684 26724 853
14372 29893 859
4144 24882 889
29057 1710 147
7734 11199 544
25881 4310 897
29959 14575 801
7630 16055 325
9317 21651 333
6309 11544 961
27283 11702 967
14455 27919 421
12781 19497 364
18 27146 614
13258 14440 559
3442 19179 11
16189 29059 537
13830 11061 987
23289 16895 81
16780 6262 337
25695 21564 558
3215 4307 557
15617 8224 689
18933 21615 510
4204 12680 614
14454 4167 939
16894 25789 881
12127 14760 212
5391 9920 247
433 25924 324
18542 26571 70
2289 28204 567
8638 2039 711
19447 26881 146
12496 2890 977
23702 14525 184
7454 21518 787
7424 28818 814
26190 12478 766
585 586 473
685 13702 596
8709 29617 725
16253 16592 946
13904 25753 353
8669 5211 211
28165 19809 777
3725 12546 464
8922 402 129
27544 7929 125
15051 14530 827
18479 4831 669
2742 24865 480
6567 18694 210
1904 22351 687
701 11860 853
23130 7544 685
15018 2863 763
10305 19583 440
12840 29244 213
17632 1784 771
27933 27838 75
18780 8908 327
9937 21551 483
19593 23354 178
29371 25482 472
9403 7467 686
28229 210 979
20250 28467 387
16502 26082 722
20641 21508 849
29620 15537 803
16542 4512 740
16925 2143 331
2170 21336 343
28652 22198 777
17944 764 421
23832 289 198
16523 3072 484
17867 21025 140
23093 17412 362
1196 20491 637
28269 26869 875
11703 17221 240
21441 28523 138
4913 8287 606
29178 21462 796
25165 16586 301
23625 24285 519
1642 7701 94
10887 14227 80
16377 17253 714
16138 25581 839
17499 5641 257
27509 6700 644
5471 11775 751
27355 11377 130
28549 29465 104
13290 23381 373
8192 2654 704
1251 4457 829
29663 6 556
11114 23977 105
5530 18736 25
6385 2782 679
27124 12614 74
15553 19807 559
19735 19296 726
20458 16686 706
5259 20191 352
28332 26172 551
29968 2794 97
6410 8319 60
27852 17628 975
21373 70 380
8281 11254 330
23453 28571 286
13603 13246 313
17885 22182 833
27248 3200 906
29849 17687 357
18743 10130 764
12201 381 106
496 13821 992
11465 23486 247
29703 28888 96
29823 26389 789
27980 609 760
12691 10684 952
26546 26277 678
9887 20586 881
27977 20200 489
4644 9830 854
567 11185 986
9619 29286 846
19849 20861 526
25960 3943 426
21765 27302 74
12975 3691 197
4616 23135 47
19012 27849 488
7960 9600 487
18741 20952 720
10690 3526 369
16312 28295 928
10568 28756 915
11635 13680 205
6687 3880 147
17908 252 566
17721 20316 923
6884 4049 912
20014 24466 986
12182 580 662
19527 29852 808
3023 17967 383
15707 28382 791
17808 22326 493
754 22015 689
21602 23199 970
7519 10852 848
6327 4787 524
2488 19710 675
15170 28131 194
9103 16619 341
26587 28657 238
25509 26297 267
11378 2331 800
13737 12984 387
28396 21024 540
19891 9341 915
14751 22867 89
17213 23913 902
2717 12720 319
23289 29690 211
17775 17508 129
20929 16501 362
1063 1117 558
18884 12069 642
18681 24516 991
25881 365 659
21703 22958 960
25225 9881 590
28218 17126 608
16339 16566 78
10358 10224 788
15798 13766 664
10911 19185 14
276 19829 152
21145 13292 647
19050 12162 155
19265 7346 553
5011 3811 565
25938 24549 150
15109 18183 214
28973 8380 142
2836 24671 259
11151 13844 564
22605 25111 680
12051 18489 856
29284 26838 600
21700 371 631
229 12566 892
20271 24059 148
28531 26298 514
16738 21148 182
27182 1933 389
27274 24705 914
13183 4158 774
11908 26715 893
12656 11051 212
1726 2755 689
6545 2296 970
19064 27970 885
20348 15151 951
3093 16275 121
6022 27053 167
25885 15411 437
15552 1583 412
18687 28894 183
21971 17530 713
9166 28141 446
23593 15230 335
17714 25494 836
29349 22957 449
500 8416 949
14893 11291 592
17682 9917 799
29641 18928 149
23917 1280 386
16415 19535 992
4475 25300 829
22915 13280 374
7356 26403 961
13894 19327 870
10984 7119 830
1753 24542 170
23219 13777 870
10242 13805 141
27258 29067 297
4767 4478 443
4145 13738 535
751 9528 624
24375 4352 563
13011 15915 248
25188 6813 260
17323 24175 441
16754 13492 116
5417 28299 219
22427 15930 898
14670 11324 541
20612 15356 386
27861 27629 715
14447 17493 897
1819 16893 396
9360 17012 578
23052 4127 946
10051 28918 163
15263 28132 208
9952 23877 852
16560 2439 210
12063 8104 990
8742 6943 765
10665 1613 463
25561 17826 435
23300 23765 683
16872 22510 192
1172 2290 133
2267 19822 528
1131 8998 375
2710 23855 378
4663 1294 504
29024 10050 963
8400 2960 130
9632 27876 751
24505 5012 421
16987 25782 262
28520 598 975
15104 525 977
15381 9293 952
3687 1407 652
15503 25766 115
11924 21810 179
279 5822 664
23826 13740 694
3226 12119 50
29606 12893 763
25743 16493 932
14323 23694 26
29041 11398 918
566 21210 175
23583 24735 230
5089 6143 242
2942 25819 401
6782 6436 348
23233 24660 199
27082 12253 657
3834 25175 765
28632 11869 539
3158 12556 907
1401 13474 75
3877 18737 961
2553 11398 573
21899 23815 918
4529 21263 909
13482 25193 751
17549 25227 872
16149 29731 848
13371 16331 74
1740 28372 724
6331 15732 578
17118 18440 381
10435 3813 328
22301 26699 920
8978 16379 861
16711 10126 600
25979 11924 555
27130 6715 847
25151 23175 884
26579 22861 745
24718 19413 336
26234 6877 463
2637 12468 941
18055 9936 476
18681 1453 412
5561 10408 147
2687 15505 351
12819 28093 636
26826 5145 662
5352 7875 62
28949 28470 534
3954 19512 7
17329 4761 595
14533 28002 628
6599 22963 381
10732 19971 852
10489 27054 233
27095 26720 590
21465 25304 140
27040 19527 43
427 6438 886
133 17109 637
4360 27637 978
2614 25931 620
27991 28457 865
16010 3943 193
10990 25034 996
13423 2240 858
22505 13962 800
3773 25406 577
11314 20242 230
25658 2857 793
5319 14084 204
19768 28365 166
29300 21638 129
19938 10735 142
20463 12396 650
24083 2574 259
24447 23047 638
15836 15973 70
5525 17595 756
5788 25457 88
29243 28781 674
20984 6416 370
5112 11101 8
2986 6804 344
26920 28800 323
7277 17342 777
24134 29271 943
24111 27127 655
13446 18684 882
3150 5176 982
17887 29478 728
8860 11565 344
17650 326 169
27951 7591 276
2256 1244 789
16977 3708 237
27626 27795 703
19739 21015 879
20786 17485 231
25885 4531 424
9945 29718 298
22495 14069 549
5126 7759 246
26811 13584 210
15101 27855 4
24803 25671 860
6591 21089 555
21093 17503 739
10368 21941 400
3075 25595 726
12202 22037 226
21263 1929 169
24433 20198 863
7586 26971 475
23456 11274 66
27383 25939 348
6651 26976 406
28755 18885 629
7096 14988 959
22380 15723 609
28687 9247 603
4958 28674 186
18538 1343 930
23150 24727 981
27107 21059 472
7055 7862 653
25369 7428 382
1018 11057 477
26269 2865 903
25228 12042 950
19209 29221 246
6245 13059 148
10007 23329 839
15254 8452 107
27302 846 454
3768 20910 973
25021 21516 5
14912 5070 575
18882 12900 488
22364 26280 89
12830 16095 782
4208 24524 755
10021 13423 576
29855 14427 754
25082 25743 644
15419 15216 346
28548 17370 817
6228 22848 617
19675 20305 127
28121 10181 505
9912 9442 649
19374 11485 470
14744 10577 375
10960 29859 718
28691 93 186
21933 27415 422
9064 819 695
22678 15237 519
4717 18389 603
25865 28802 153
6530 9256 763
19547 14074 135
25840 16420 615
2455 13593 940
22814 17711 166
14163 25380 566
12755 21565 108
11383 2233 877
8154 27255 445
6621 25328 238
29515 5564 711
27331 26274 550
117 26592 256
1232 1484 469
14774 29976 221
28172 28415 947
22366 9942 970
18227 27363 855
14378 26587 445
27592 28474 327
28840 29364 78
29849 18174 427
14815 12039 133
5558 24145 140
24436 1570 981
14970 29972 490
25783 24087 258
7392 16854 41
14378 8943 669
25033 16634 35
11054 8014 628
23243 21747 161
883 18059 788
3374 14361 275
21349 7793 865
6867 5601 34
29263 24323 78
23029 29183 411
10826 20821 632
7341 20021 771
4675 608 43
21701 8309 186
18125 26302 17
17554 27519 866
21097 15096 781
25284 10367 876
23214 28354 867
15760 18122 668
21754 22262 432
2432 5797 883
24218 9541 662
25204 18025 230
5697 29435 802
2948 22375 117
7832 10976 211
14040 15820 644
236 14086 77
26467 11188 959
7870 13441 41
284 13312 184
26029 9146 19
19282 18586 289
10509 19963 617
13354 9662 517
3358 21830 890
29559 3157 825
25692 308 963
9911 17791 860
6808 27810 400
17232 4569 60
20340 15434 970
10051 17872 87
14841 9869 392
7332 10222 226
11806 3255 566
4095 27127 516
248 26892 877
23707 13512 681
14028 11637 129
18468 18256 261
21209 15811 31
16691 15306 389
28879 620 317
4806 20149 973
11209 27980 172
20701 23550 455
26673 10222 899
21821 21182 821
29620 21611 496
13412 20332 587
7079 17135 191
22338 26289 465
2692 28160 624
6281 10077 63
8102 8787 410
1133 29093 588
6116 24191 156
14779 9539 481
6657 26083 871
4617 15134 355
4941 27559 283
489 434 624
8997 16189 979
19828 14793 145
19699 22111 259
25390 22087 782
19722 554 351
3625 23246 718
3148 18316 553
26453 14087 979
5979 13572 71
10476 27755 885
13690 20890 174
23445 2446 877
10836 4293 320
10322 28324 782
20639 23831 547
415 2600 16
25785 21653 198
19367 2304 169
14424 18525 710
1032 13322 689
16645 24457 267
15063 3635 469
25164 4648 157
16332 20265 303
26882 20750 599
11660 10541 96
9774 21659 546
27312 13736 323
6691 18988 684
398 23470 959
29044 27403 832
5054 3027 375
8604 3491 497
5669 23169 848
14016 1206 822
6151 25515 286
25924 7666 426
3997 24920 422
27954 4860 377
10683 4846 331
11116 17278 742
14747 22617 589
27592 1961 374
7937 7807 396
20585 13560 185
15357 23531 79
13057 1481 80
24365 24790 304
25256 12990 786
5640 2073 70
15494 10281 527
24257 27209 118
19172 10532 359
29665 24651 283
18917 5924 546
27687 7482 416
18790 2218 920
17318 18165 183
1692 9540 198
19589 18335 904
11207 3142 330
16479 26286 616
24855 13623 711
22526 22076 50
16430 26092 581
29777 27044 757
28355 14246 126
6198 22537 19
1079 25497 984
740 22341 621
16013 25366 636
6891 20823 224
25186 2145 172
2835 25661 309
15373 22069 87
22585 28880 841
22465 19516 254
23846 20145 25
25096 16872 178
15724 19453 215
15424 1655 560
27132 10079 494
22611 908 769
2928 6547 44
8956 6399 458
15440 25798 733
13442 22584 974
17331 19494 202
19485 23084 397
27722 727 810
6912 7929 581
3349 28684 623
645 12716 801
6605 29202 237
8816 4696 607
13050 9425 776
13324 25097 736
19750 3815 784
3912 28845 397
17566 9990 36
10039 23381 514
18525 24649 739
5444 24281 947
14078 16990 306
17219 16144 74
18079 24135 565
12546 26366 640
22378 29782 116
7785 10513 169
12635 21595 284
22429 16728 810
12067 12764 646
23073 2156 401
22496 14009 759
14850 12580 295
17414 10821 946
28560 20086 316
12471 8076 377
19352 15749 953
1724 6936 158
24096 5593 967
26625 17515 56
18097 19117 882
23915 26222 193
7753 16772 689
22910 29323 703
1836 14610 465
25976 4988 609
19014 18605 680
21070 22455 193
29961 25459 963
20799 2234 705
4163 14272 335
13157 7200 704
24766 12241 181
4283 19531 153
12064 28313 608
23929 8795 997
7368 18016 537
5104 10465 438
22792 11982 472
10853 3850 24
1993 27484 664
14982 15319 116
22018 13625 635
11921 5503 841
11725 25244 671
2614 10045 313
28543 16369 590
18218 21611 48
28647 5158 484
9578 16789 475
10109 5716 780
29952 21684 891
22163 9912 923
27215 12459 101
25710 21006 186
20032 18185 702
16747 25285 788
12681 26976 838
23233 28023 583
11706 22314 368
15169 18928 863
28706 28584 938
16981 20771 366
26278 26263 715
18882 4604 699
1750 11312 38
23039 25588 687
5241 26653 132
12441 10606 923
20226 9280 334
6840 23864 5
6495 10783 148
17791 21642 755
25960 28977 841
15036 12628 40
1720 11611 838
22206 24720 873
12094 8714 479
3149 18184 462
6987 12408 778
29616 14876 823
22965 13733 738
16943 6627 973
16497 14896 633
29738 8644 400
4608 27370 683
26326 4333 317
12668 25524 122
4478 29305 33
28745 7657 374
28191 20861 364
21189 28792 349
2930 17707 474
10237 26136 728
13288 3485 129
8096 23863 942
21380 3156 957
27118 14602 392
24469 6499 901
5640 19469 851
5873 17397 46
29887 468 180
5988 7889 439
999 10075 297
4054 11468 587
17331 9435 966
23946 29030 607
14634 18146 661
7640 2568 983
5608 8473 95
29822 19388 253
18553 17719 639
20349 6687 785
16782 26599 761
25272 24722 363
25615 18146 723
19463 13766 186
19674 28321 515
26379 20790 400
11768 10405 587
8882 1758 519
25474 2257 825
13857 23357 622
25793 16514 759
5295 17530 348
27152 14606 843
24814 17924 439
5749 24635 823
16391 11298 362
26411 10614 879
13775 23267 59
13337 9513 922
27119 4239 865
4294 12351 825
25029 26556 45
14802 14603 80
10618 18613 690
2162 20178 329
10569 25374 312
10360 15632 413
496 12150 254
26527 13832 582
16446 21338 347
12254 2993 134
9128 23601 443
2523 18260 218
23253 18471 748
4855 4200 489
17265 21260 25
27921 25720 22
8758 19907 124
4860 23419 992
24716 20881 519
15706 20316 728
6287 24684 639
26304 23729 575
23698 5837 444
1571 23259 129
17641 18216 248
299 842 231
5845 20344 883
12145 5031 20
699 16788 186
14465 24729 697
3869 18571 445
26889 12165 964
8638 7205 929
23790 11831 142
27511 15131 613
19007 26128 165
10728 18138 810
10393 22593 479
24216 9144 353
17130 5493 678
26162 17545 193
16943 22038 809
28664 3514 661
20382 15774 549
9583 12403 378
13296 15388 843
25006 8191 68
23083 5306 707
29437 21512 546
10443 14405 203
11991 27515 633
18888 17049 314
3738 10038 214
17110 11228 429
27901 16681 362
15760 20020 748
16559 28465 36
6254 21061 77
23597 4060 743
24349 2003 798
26149 14815 521
3427 4648 416
20504 26051 794
2803 15393 373
26737 15005 794
28936 12749 102
28294 19586 239
3859 22888 935
10296 26368 975
1580 22512 667
147 28292 45
29442 26587 662
14648 10950 605
26114 22955 710
1627 3232 22
13090 14709 48
2610 18706 715
235 23098 585
6759 24923 876
7286 9708 546
9614 4675 480
28591 21975 586
18154 25161 412
22237 25765 743
27570 24142 595
12849 13853 537
28704 5476 111
3763 12511 867
17697 12517 186
1767 3257 11
26115 10441 726
10277 12432 661
7393 21256 751
17054 6463 670
28889 19607 255
12219 25947 836
22628 20172 640
2739 4003 79
26094 1283 630
23501 14990 497
29909 3955 430
28362 2469 673
17091 9649 813
17210 1542 662
13242 20288 233
14198 26938 318
4400 14607 206
27542 1276 477
21917 21032 209
20017 12155 634
8670 18119 648
29912 26598 668
21384 13878 416
23989 22225 246
4331 19318 505
15662 26801 335
6563 23225 710
20650 2281 3
4200 12688 803
12365 15787 735
2441 29675 613
25877 10627 183
9208 28374 106
2925 29270 914
1351 22437 782
26164 6462 709
1239 21053 884
23744 28523 218
24161 26665 835
3938 14274 392
14483 22827 178
17526 21889 634
12301 17267 943
8810 9879 240
20704 3197 471
13924 18067 583
23388 16069 787
1276 19593 385
28516 2069 614
22704 23136 523
5373 20591 219
21037 14882 495
5120 19503 993
14808 7633 440
12812 218 832
26012 8726 23
16722 27690 815
25045 9874 339
24830 13787 471
8435 576 282
8835 26579 261
15629 4262 679
9707 7034 594
28793 13539 947
22563 29711 409
17219 28876 91
14386 16397 733
13916 7313 595
27109 16556 74
3484 25607 926
10694 20408 347
11117 510 170
24064 2255 532
11294 16052 827
1308 1140 802
21222 17139 537
21036 8691 779
6472 26082 104
13775 9570 349
12987 26597 702
16207 26511 438
13458 26031 35
21881 11257 89
21275 7682 96
1744 22089 390
2793 24552 542
22004 10287 882
29306 29260 260
20693 7335 735
25286 22936 466
28229 14950 238
2791 17040 487
17417 21192 414
27558 16506 803
4604 15669 474
1409 15582 925
29007 15177 259
5808 11467 659
29205 24815 940
13454 6114 281
5213 20747 929
4284 9419 449
24025 9983 440
15149 2764 973
23985 3046 132
29093 14399 483
19785 2333 207
69 4806 317
14672 23077 138
9499 7742 753
17461 4009 62
14878 27118 959
20274 27797 893
3780 3254 324
7155 19319 147
3973 11774 181
9183 15381 264
18995 11842 735
1341 20417 244
17062 12745 807
10315 2848 216
19041 25659 821
20767 2352 355
24269 23833 778
3023 824 597
2802 27090 755
10172 27997 197
9424 25161 246
22151 18028 465
8564 20896 239
25717 17210 187
19877 4141 607
14474 14943 656
3141 4240 282
16216 26650 747
4284 28679 401
12321 10477 673
27597 21114 938
9390 11472 111
25211 7948 217
14200 6161 52
8057 3428 834
7748 17021 901
22730 7928 186
28582 24272 220
21966 18735 862
7661 15722 401
13617 19449 614
18608 23367 143
22750 17703 554
26464 13553 736
18876 8555 710
22795 29867 699
22368 6357 202
21193 12860 846
21484 29521 739
24212 3491 323
5940 8717 32
21949 18581 307
1942 21502 5
7615 18245 931
19250 24605 153
38 27926 706
4932 22105 764
29145 7541 640
22885 6457 769
18204 19232 194
25443 1701 22
28364 19479 643
1209 7271 456
14021 26153 912
8160 29955 1000
20229 26579 736
19385 19088 500
2555 5154 444
22012 25560 80
2002 17012 914
12226 14636 49
13211 26575 843
3961 9763 682
26236 14490 730
25961 15606 615
1349 5000 701
25123 29079 58
13613 16811 719
9667 22902 340
29003 27108 488
12320 20991 306
10887 18548 208
24801 27745 137
25748 26926 645
15631 24635 36
11841 5021 280
27753 10557 648
7586 16652 249
396 16706 530
21282 24280 369
14385 22163 30
20571 24971 614
21405 25872 139
809 16532 20
10232 11348 462
21964 15043 459
14902 256 9
22291 4421 279
14145 10500 911
9997 17907 98
29498 7217 609
19993 9936 800
8125 15808 446
2581 6681 145
21843 5350 723
26792 24052 601
21015 3179 79
25924 26892 619
24070 8468 907
9872 17209 229
26175 10629 656
19748 21808 967
28894 8311 766
3805 27865 43
10235 22127 422
20937 24485 185
16017 7075 441
14855 3616 464
19365 4294 365
1880 11889 944
27964 27447 103
25657 4078 273
29993 17378 266
8217 22338 368
26187 18011 561
3473 2128 570
5775 6190 611
2581 7210 816
24029 25122 243
19253 28943 408
6421 16880 537
19218 20838 103
21602 25867 477
3683 9000 654
4954 17143 844
12650 814 963
1984 24825 495
11899 19753 510
14904 5700 416
15775 16476 266
3718 13525 816
16078 23869 45
1260 7661 968
25312 17612 724
13614 16529 65
11007 22869 260
13918 23202 248
3897 3305 201
4647 26979 293
15916 28540 157
4962 9268 942
12104 24327 439
16923 28418 36
25385 1477 427
12525 12061 452
27434 8872 646
23369 23514 832
21022 13990 621
6593 13053 183
14725 15412 264
22039 11767 287
21445 11526 260
21338 8084 932
17069 17821 531
29121 13766 427
16688 19773 811
29216 3194 428
26127 16957 169
10610 8666 807
23389 17954 614
11774 17453 877
16486 20011 786
26734 27324 315
10975 22460 470
13897 23941 323
15538 1269 880
19458 22024 961
582 5456 701
25681 16596 54
1975 9054 795
28447 28207 936
24596 27087 820
24340 8454 646
24995 3266 62
14469 23705 697
18869 29898 541
27957 15186 644
11459 26163 778
1759 2625 1000
12461 28572 222
22540 2888 923
24301 10393 297
15408 28562 149
28237 22696 611
4957 25943 191
2472 27526 822
25816 26925 100
6202 20227 631
10040 9730 309
17291 26449 83
24617 2830 658
5979 2268 412
23168 1393 787
11635 27587 387
26750 2947 434
17995 23336 833
19370 29325 625
2668 29248 537
12030 19152 103
11542 20381 843
28278 15863 360
6397 13909 209
7164 12627 914
9575 7101 480
28830 24359 434
12051 9978 661
13054 25739 877
1940 8053 736
12906 5581 443
10214 20078 386
26789 17035 849
17065 6367 444
25353 19 734
588 8956 861
4959 16269 117
3400 26034 412
29597 4492 186
8207 12139 944
23563 7178 713
9313 28323 499
10517 28897 63
29632 18086 242
10836 19868 866
4457 24630 878
630 22241 788
19623 5681 877
14162 21101 710
9684 16969 485
8831 29425 779
11533 6336 249
29199 18054 794
27042 21524 809
14305 18339 927
28300 14273 977
12586 12659 274
9335 7132 111
1214 70 196
18783 23315 461
5984 9046 490
4538 9796 3
16557 13440 760
24063 767 696
2515 20324 898
29106 23298 688
6958 17098 448
21211 26963 883
27935 9531 671
29545 20890 719
3575 15901 638
600 22821 1
12666 14847 679
11482 18966 823
8590 1639 122
17494 25552 628
14661 13232 133
3163 11886 556
17976 24116 295
28614 28279 664
7757 15395 415
25111 21508 803
10304 14487 848
26833 28668 551
18723 22961 620
22521 4397 892
21409 29602 898
29686 21541 701
26351 2941 105
3416 27985 785
26914 28879 515
17061 9823 204
20227 18245 30
11617 7411 511
9232 27884 51
27903 27163 763
23402 778 405
7697 7616 74
14109 14781 130
1094 27957 202
5049 12266 874
11873 23944 997
15656 14384 42
605 9470 162
10611 13879 689
8429 10249 498
1004 10629 455
20512 15214 210
25563 5531 52
14169 10049 471
22885 7558 804
13688 7823 453
13272 6608 557
18894 9858 186
11783 28482 56
29989 12325 890
17894 31 891
4493 11781 263
20694 1208 889
16817 22219 884
19777 28297 160
9797 10264 295
919 22163 367
29975 22939 316
4386 10901 114
23983 5751 67
3703 21595 316
17854 27809 243
10649 15815 896
25439 18822 513
15453 27907 931
16916 17384 948
29367 6543 680
24748 6969 422
7854 26874 207
3752 7651 193
16711 27731 630
5433 21927 749
26458 5446 349
18022 25902 405
12300 586 263
28928 21028 983
17113 18855 124
20848 26698 546
27661 25351 647
11437 27867 59
19596 11145 323
12603 17691 468
23241 21841 432
21160 9196 728
5706 8999 901
3272 29919 790
9781 27053 229
2583 11969 993
22543 29814 961
23142 7171 203
8683 21829 246
9660 20789 120
18466 24805 636
14508 9838 88
18210 16024 100
324 23993 942
11221 26218 3
29885 24868 624
3132 25814 855
20642 24043 969
25584 16110 251
14471 25584 927
2451 7970 429
25917 17039 56
9968 18802 860
27241 22575 843
15134 26178 366
9939 22373 627
28972 3768 70
16773 24852 848
28662 6078 934
28360 17750 870
20475 22954 730
16861 24401 700
23342 15013 491
25016 27377 39
15215 15208 172
4004 4414 355
4920 14201 608
15300 8449 718
8278 622 896
15122 26366 723
29176 14183 49
13152 6489 293
15141 21521 402
15695 15142 617
12817 3948 784
561 16916 88
2924 8893 658
27581 18979 486
19402 7763 360
155 21703 327
15372 8711 840
12424 22139 797
11314 11559 215
10922 15627 385
16831 7160 669
26987 4506 374
14602 16723 241
29720 24374 348
13508 3011 74
16990 8875 864
17462 16228 402
15030 15377 90
18630 14128 588
27967 17934 682
20867 26276 204
24720 26566 53
3996 10859 25
27058 21733 507
13144 23992 563
26968 21248 871
24206 25079 700
8204 24837 946
19716 14022 965
7363 21614 315
12923 18556 15
15570 10563 752
2562 15423 918
20920 16992 400
26995 9204 137
10112 11186 542
26587 25814 202
24157 9312 823
29515 19191 950
19790 2755 833
13963 12469 388
18271 20813 35
27895 8161 919
17135 14302 757
7361 29149 191
29550 28892 425
12864 11993 809
20187 10832 392
6916 14477 771
12164 27452 216
22382 26173 66
23438 9224 726
24362 16036 755
3438 20539 802
9798 13830 857
21491 44 310
2542 26478 324
23330 20282 339
27670 6934 598
22755 7477 162
29299 19359 624
26857 24792 858
20493 25115 722
22595 17510 476
19278 8478 972
29788 13302 654
26221 21919 607
906 22939 176
19975 26631 815
3157 22048 194
19554 9979 867
18265 10236 597
27088 2104 84
20446 7363 20
18906 8022 914
9764 22726 40
1162 27465 873
24749 9016 387
18268 20899 330
6608 26245 834
28319 12474 33
2040 22081 999
10194 20688 563
1519 21390 128
23695 24841 751
18772 28173 189
12909 23658 78
1095 28495 428
14402 23375 933
20192 5990 571
25217 5937 508
28227 2127 338
18455 29616 475
22655 24295 465
21735 8860 315
16131 28465 838
25319 11358 691
14381 8505 881
18204 19458 165
12569 14316 292
29496 21679 445
938 25349 512
3872 23134 657
12416 15062 87
12754 27749 175
26390 12467 685
15825 22534 886
15469 3373 950
22384 1503 63
27387 28766 329
6066 11055 165
17550 946 421
25598 19546 380
28171 21743 752
11569 18074 639
10383 13591 632
25562 9898 385
3960 21415 295
12586 28796 943
26372 4946 589
23435 10638 860
18744 18023 502
19437 6315 977
5951 12053 962
924 9972 854
22903 27278 321
10793 7323 130
15904 16744 20
23694 3561 19
18051 20899 137
3800 18760 602
8474 9461 242
22097 7576 765
14936 28978 328
15616 23639 232
9079 17410 761
11471 20466 268
7034 5364 93
27079 16817 996
11139 8061 129
25620 20729 121
15731 21209 524
22780 29972 691
11371 15035 520
6260 660 811
12020 15183 274
7483 5262 318
14565 17974 430
19883 23591 506
16419 8825 72
10022 18315 716
3967 20968 353
5320 24508 849
11349 8402 629
29509 16224 778
12073 23710 898
28948 7758 449
7581 22577 553
24497 19986 816
26168 18531 503
23818 12453 404
3669 28991 967
22071 24354 870
10185 8748 594
6243 18263 495
593 15135 299
20706 3135 510
8360 1245 282
14495 18031 476
21584 2933 637
10022 15693 867
551 20533 272
21205 8200 599
1518 18269 420
16013 19885 595
4607 16159 493
14818 28294 223
7625 2808 926
17746 7451 481
25265 24472 466
14600 22524 543
18503 13732 646
28446 25619 510
22082 23114 880
2386 6575 382
26729 28892 936
27680 853 849
21186 7685 66
1428 2390 836
19809 1461 626
15863 14731 332
23972 12922 135
22827 21725 798
4802 9271 11
27816 15705 849
25533 23789 596
5145 14925 547
13863 26111 488
29074 3695 261
725 28369 74
15755 5177 647
25142 29927 428
27493 9416 748
27612 17801 451
15090 22266 328
20923 12335 800
18283 26900 109
6336 22443 139
9272 27376 856
19071 14920 787
24331 14100 239
7795 23271 829
23639 22610 51
27390 4374 20
11810 29785 980
2363 7579 395
21527 14414 674
15442 25866 966
5852 5035 53
6072 26625 298
27524 29164 942
17221 28909 179
20903 2747 415
6385 20126 61
21531 18947 656
29430 19322 628
17222 3648 116
11168 16084 248
21575 24748 881
4970 25385 368
2407 12820 260
19668 20878 928
5692 26774 133
7275 29251 139
20772 23870 118
851 27269 490
21318 16757 566
22308 17976 392
19428 5172 242
29560 22574 250
28747 16749 614
8122 15028 267
13606 5249 401
10876 10006 893
18260 4155 701
7742 15740 368
17569 13565 327
25464 24468 488
19879 17948 676
16094 17901 984
17762 23985 951
14625 7120 106
7964 4343 48
19856 465 797
9019 11080 647
23607 5788 791
4002 19805 635
28553 14316 203
7799 16059 174
16014 15316 231
19352 17800 112
25076 24752 282
28507 5460 900
19064 25651 934
23728 7661 254
28726 1416 697
17220 8997 617
13776 1266 661
13367 21084 919
22848 16036 566
10517 9862 616
7808 13320 522
6016 7183 673
10180 19219 259
3304 21457 165
28013 4046 179
29302 26728 284
5202 23786 739
12329 12609 293
18224 25527 817
28690 18912 381
6812 24798 349
14851 6707 261
3063 4415 522
9889 14677 90
25934 9481 631
10545 22600 390
23690 29416 671
27202 9141 663
13954 3120 680
18119 14370 687
2334 363 207
29673 21546 745
17274 25071 983
15566 10723 44
9742 22079 83
26706 6389 833
26323 20789 823
12939 28259 277
2189 17821 453
16551 13326 116
7513 2502 95
25497 11707 98
12689 12482 947
19807 11307 480
13459 28453 685
27090 2910 429
4995 28581 960
15664 19470 481
9004 9610 588
5619 22894 704
17465 15134 100
27650 22048 213
23796 3008 606
25200 20314 634
15374 19414 26
15377 5060 588
6029 11561 779
15967 25354 316
4751 10690 875
6948 21654 404
15195 29970 721
4614 26148 784
10255 8493 290
15885 15719 332
8322 27680 398
23011 22856 708
21596 29779 127
23007 16772 968
26958 4144 725
6028 16302 131
23160 24331 336
29954 21735 236
27627 28903 630
11611 25880 397
20877 14602 117
1633 25541 917
8164 6089 793
1920 5801 249
29763 29382 186
2644 22605 556
23968 12889 779
18656 5699 696
4601 13376 963
26644 3616 100
22101 17861 162
26739 27390 643
27705 14163 11
25630 22612 718
456 11580 742
24432 18640 639
21225 29834 645
15847 6321 26
8619 13781 553
5982 5473 984
8549 18894 806
3716 4313 617
16301 9124 328
22876 24906 380
10282 23605 723
9185 9587 953
1192 22518 170
16004 24237 602
21008 7195 927
27493 3651 249
19826 9103 993
14901 1228 771
26750 6611 224
16337 25239 902
8194 7327 14
7586 8492 143
22848 28390 563
9957 28705 893
796 3304 818
8812 23368 643
24159 12258 556
23653 1171 9
12631 16993 146
13515 9956 98
13636 9151 155
18234 28036 471
27034 10207 130
18957 17665 657
4113 27444 355
3474 1691 664
875 13069 190
1858 20174 503
10677 14730 301
5394 17193 160
10418 23782 213
25474 27261 397
21777 9529 821
11771 15654 821
847 11863 183
9831 10102 274
21846 13095 899
23696 3607 473
11588 9339 880
25781 7500 787
26214 10879 524
21952 11886 555
7848 29509 877
24803 5459 793
17956 26240 474
28405 24957 763
26967 10764 847
29670 20629 75
1635 16328 633
7083 2298 341
22978 14347 478
13257 13603 894
18361 27748 283
21508 26438 728
17159 2879 495
14908 4272 441
13422 19086 911
27884 8934 728
29848 16108 369
25556 18309 254
26201 2704 998
8816 1340 408
19904 23508 668
3409 8169 638
15070 5780 974
18787 13454 412
1423 20181 579
17514 28940 196
13110 5297 530
28229 13148 117
6817 10546 164
2553 6121 21
15427 18702 105
10140 7606 806
25216 23312 398
7444 16258 806
2890 22995 286
23668 29434 792
28242 12987 186
974 13857 759
15671 15127 777
27842 27482 1
1036 28503 333
4533 5178 695
13766 23868 204
3948 29928 257
29154 9927 28
23222 5340 376
11385 24436 352
23094 29345 824
7599 27472 617
25341 25021 308
2704 23097 872
9131 27797 930
29168 3904 950
3752 1719 528
423 24749 798
17071 19848 229
996 7918 663
29613 23672 575
574 23947 158
27611 15341 205
12281 3072 589
8117 4240 666
27333 22506 192
15305 3461 14
24293 26158 616
25778 1189 719
2498 19058 281
13699 13713 490
14531 27275 28
12898 18490 8
17846 6572 172
18441 5278 930
22193 16656 679
3641 23554 790
26547 24987 476
22919 12065 178
2467 24034 794
16125 16917 693
23052 1722 14
826 21024 601
26535 24266 791
5819 238 897
5778 13046 581
29418 22166 414
27125 22413 954
13016 5053 569
9078 16937 278
6209 27589 50
14328 13889 530
23732 23821 315
20779 19105 261
13331 26906 953
23623 23121 74
18536 15136 457
27315 26614 999
13641 8794 42
10634 15880 131
815 11671 995
23774 222 258
5285 249 954
6137 2100 205
26159 24160 749
21583 4045 834
1476 26721 739
1230 28143 741
29624 12192 394
762 17378 37
14334 4801 963
13507 7951 265
4729 20840 96
20221 2218 601
16266 1890 674
6190 8190 930
21782 12097 486
13416 29616 764
8796 19074 364
9062 24080 217
24897 19846 811
1358 22209 228
28250 1734 921
7020 29656 69
2656 1530 249
6782 2107 305
10965 14421 393
21021 1034 412
18973 24604 139
2734 12256 184
3229 12199 259
8008 16069 264
6407 1214 562
25576 28630 697
23235 893 167
10905 14866 492
21250 2647 150
25453 17228 843
16875 25233 611
19886 20410 303
9077 9813 955
3654 12277 878
24542 28335 740
2408 26721 88
18499 28001 906
15368 14324 881
5531 13621 397
15059 22856 403
18508 25762 697
15097 16673 509
3796 21056 244
10354 10251 682
7755 26597 78
17589 4206 762
6208 16673 91
145 27145 656
19212 25353 368
14341 15915 968
18857 15436 676
6250 10764 570
3332 3599 70
386 26217 161
16878 17082 769
19741 25904 895
19995 1892 741
16828 5211 294
5062 14815 235
3363 17121 769
8982 2878 227
22059 6532 415
28553 11969 161
21203 16507 868
27478 21347 313
18226 22423 366
10130 19991 452
29198 691 783
3981 8642 985
16735 15917 454
14956 3547 624
22532 18964 369
4540 13057 549
21508 25018 888
12771 11892 566
21475 7648 470
28976 14848 40
22793 11035 358
13591 15046 79
5239 13235 458
7960 13582 592
12597 27575 148
3213 3780 843
28214 27348 621
26868 5874 620
838 13323 484
22159 26599 180
3220 23953 159
5517 3664 778
18482 14158 193
7445 3004 612
8303 27664 326
29537 24918 773
21154 25108 526
8834 17356 278
10292 8178 501
27961 26272 469
17632 21617 391
767 5448 932
29564 16981 279
22684 7416 511
24793 29087 56
14804 25649 949
22644 8876 941
14642 8333 519
19798 10228 885
23481 7237 961
10788 5695 805
11849 25301 915
3174 20658 866
8191 14559 607
22884 17584 204
7693 12741 306
12258 3748 420
3332 16676 286
10056 25707 580
10024 17906 468
12581 24786 999
11032 1583 67
12682 19676 217
12829 21735 620
7344 9204 290
27688 15672 876
15524 22607 856
29012 11883 659
25204 17933 824
6300 26266 818
27389 20127 522
12408 6129 887
22858 17616 520
17560 18157 668
18464 22867 144
15068 10446 668
11459 26503 183
11747 25624 697
19983 14930 559
20856 10731 17
16081 29426 236
18707 15297 486
2319 17660 86
8360 19147 462
8094 9616 893
28914 15705 202
20604 7974 805
18680 23344 53
21076 9918 112
29125 18399 285
20895 2493 336
20732 362 143
20714 28752 156
25641 19147 280
22021 27741 788
27910 29660 136
11127 1952 161
156 26035 489
25370 29369 466
6959 10927 70
3808 17132 485
5531 4358 909
27651 19504 42
27807 29924 957
16123 14353 537
20761 13121 196
3175 3544 585
23139 25374 255
2664 16683 467
29110 27779 471
12795 28666 454
4170 15855 146
2513 28296 125
27782 20709 477
11162 19563 585
22439 8917 218
15318 21156 950
13834 9840 823
20703 9123 38
28332 16470 537
15114 15318 232
18708 21332 936
7364 26745 953
2407 22576 180
4504 5014 2
20669 22238 401
29362 27807 313
22410 23978 128
7241 5629 62
2274 140 500
19140 16179 362
13453 8282 428
22376 26431 285
8041 7652 879
14579 6860 197
21486 6022 1
17562 13629 442
8706 25393 243
116 16242 755
2239 25569 80
18312 20184 605
22374 2463 70
26246 29721 811
22431 14488 634
9105 28241 953
5576 23486 462
2733 22156 520
19437 26810 102
15310 19695 847
23139 24209 703
6949 19846 398
14795 25305 926
4661 12801 4
201 3421 758
14419 26905 366
28941 13807 427
16049 17408 417
24979 4365 215
3932 765 24
10236 22111 323
13399 24879 537
3882 4193 612
1773 26330 232
7240 23986 312
24349 9861 833
3721 22890 95
2493 24594 612
20033 13810 730
23561 5004 219
10629 13005 587
3381 14384 141
27510 10974 799
20712 11175 659
13027 28503 565
6381 4498 141
3125 16946 210
15922 7830 566
29559 10591 784
17933 7394 440
28003 25420 506
13336 14312 991
14095 2956 42
15399 14227 174
19131 7283 317
29676 22012 636
8752 9046 625
9837 13692 919
19361 12071 45
1824 7791 345
18923 27967 546
22006 21647 176
5545 16149 377
29757 24941 275
9401 1806 115
11109 25219 565
24542 13513 999
8177 25803 335
16526 12829 895
14359 18995 471
10389 20901 321
19954 18697 764
3963 1790 658
3926 29616 176
9832 16136 77
6365 24615 990
2884 9054 534
27849 26528 213
20819 16144 225
17895 21809 797
21425 9074 213
23769 12074 612
23037 19537 671
19509 3795 622
6239 9357 79
24375 24709 677
15588 9925 429
24745 7723 16
20730 24579 991
13460 21625 598
9998 28870 505
27143 9785 97
13975 10961 953
11204 26172 817
28160 5110 875
6115 27726 946
3211 14891 183
27485 19942 561
18478 26954 923
15093 14940 833
4006 1932 117
17018 24629 213
29032 12847 412
5900 25053 725
17103 25001 241
26857 6981 164
13130 21341 657
26469 3597 327
16637 833 983
7047 27280 586
13991 20619 496
18492 29671 159
18204 20872 563
18056 22895 170
26850 26948 380
7926 7325 580
605 9209 256
19844 24633 244
29527 9426 751
14908 28528 16
4611 13401 737
25974 23549 792
5382 16788 55
21889 23738 284
6933 13877 734
3387 9415 20
13744 18655 96
26006 9725 208
19731 5929 345
21553 18212 59
3803 9470 219
16077 24651 429
19198 11695 802
2669 29010 303
26199 9844 501
18500 22570 662
21716 10668 8
12066 23307 352
14120 6795 363
15015 3946 692
15137 12870 728
29270 3716 309
26277 9616 229
14186 5945 146
5464 9371 843
26284 17962 122
17912 16395 497
10923 29245 769
27211 12506 747
16033 8487 467
15970 9497 625
1529 29714 957
23778 28194 790
12012 435 304
7437 29379 791
26304 14551 879
26405 17330 919
29568 6064 577
2126 6434 480
9804 2218 627
12700 1621 17
298 28565 540
21869 11863 175
11666 24538 597
16798 5493 797
888 14496 764
1512 14590 548
7091 27960 424
23600 13445 982
2690 25100 557
11191 379 260
18457 25435 247
26449 10453 787
21437 26366 990
25328 9904 866
29158 29991 472
2504 11479 341
239 11726 421
27930 28531 126
26386 12566 693
29098 26357 769
12605 8765 729
23203 22527 94
4459 6604 373
18912 23486 40
16489 28448 804
22335 12222 354
24315 8329 459
14743 7790 509
28788 2769 607
12003 25609 164
12326 15609 525
28696 15128 431
21471 8049 123
9192 29867 87
28483 25788 639
13919 2109 152
15423 22250 573
4690 16317 976
8946 24614 769
21394 10817 541
25028 23597 306
8671 28313 27
28317 12216 447
11879 18585 447
975 9937 492
6128 27987 239
6659 14300 295
20570 29896 304
16997 10584 891
9325 4461 756
28325 9155 688
28752 24762 970
27173 23901 439
22839 17039 427
6555 17355 249
22395 4155 885
118 12771 372
20786 11063 391
27134 13956 896
2077 1112 312
17094 27583 255
27880 4504 443
8131 12598 668
17695 19562 10
21071 6686 105
2782 6146 28
9651 7874 157
25627 28694 649
14612 10299 34
1309 21359 65
7563 24324 138
5941 28894 715
12514 15510 536
23064 14767 352
9718 29156 115
26228 29894 731
26336 20407 703
18890 28806 874
29300 19168 457
25131 9735 262
24014 6580 763
14783 7841 882
13643 10819 691
19253 9912 806
14292 19392 260
2401 5410 986
24990 27327 322
21805 7473 918
15880 25728 265
5379 25065 398
18551 16493 894
6002 24938 336
28247 22801 385
22013 20765 541
29476 29218 42
20980 17636 996
4765 29365 653
28142 4735 918
15597 14191 118
10906 11311 113
21302 2985 474
21787 2117 95
336 20823 492
22127 23034 121
29719 2881 750
21322 3089 772
8633 2376 373
88 12813 632
6739 8128 768
2177 23627 461
1951 28458 85
20517 15741 701
10808 2923 141
5755 25930 312
13569 24728 932
4841 11439 165
22359 25013 649
27645 28379 666
29457 29302 470
29580 29106 315
11462 6105 843
23621 5038 952
14170 15605 294
21951 2172 556
9729 18082 956
4717 1705 147
12317 28057 310
18828 28073 515
1295 13618 576
19266 2804 219
22740 1469 858
14208 27749 800
25584 5398 710
6874 16888 971
28040 20139 238
9461 3158 495
15228 3596 701
5905 28918 597
13313 23156 476
2905 23813 646
8242 9718 391
27256 12608 383
5223 8259 451
18056 26003 622
25419 19572 307
2200 17647 399
20505 20765 12
10687 8900 438
14427 29745 317
23515 20008 683
9852 24566 95
16975 18930 140
19770 9152 641
23875 24699 100
20047 21363 230
18298 14377 758
3535 2437 648
15900 11119 108
487 29860 656
21526 3200 48
4072 22912 626
15308 26114 709
28909 584 241
1504 15539 238
22932 316 349
222 7029 828
12632 4391 231
21874 6387 693
18752 17879 476
11933 25162 686
9608 25508 208
21446 20323 773
28503 13210 532
27215 22982 953
26196 14809 42
21602 4518 985
17550 24183 715
24613 13152 574
17360 27606 132
1540 20453 58
9856 13981 537
21584 5395 22
2351 15842 275
14343 6593 809
20306 8819 604
22588 7127 275
2687 22359 207
29850 21464 156
18335 26727 166
27334 26411 200
29780 15250 408
20861 26211 195
329 16570 658
24518 11181 707
26554 7462 731
7110 23063 459
21802 15857 791
22250 5516 194
22520 3111 777
22375 1977 226
7959 17290 340
24822 3442 508
15254 18358 489
3260 22736 748
16003 16032 405
2817 12416 410
13346 16455 868
11396 12030 798
23176 3640 389
2927 1976 45
5497 29014 18
18005 14141 657
7012 6949 69
15367 26693 289
24826 4029 76
11601 10897 857
3626 834 779
16442 19675 915
29252 29416 258
4261 27277 471
19724 10198 542
19357 26990 359
15389 1124 414
6905 7603 675
28399 3889 937
19234 28686 78
25214 15880 392
16666 11568 462
210 17792 926
29428 24930 293
20049 21433 395
28877 26080 655
16859 16518 429
6080 17556 9
19748 23912 303
12672 5921 812
27626 20387 789
24177 17009 690
25433 4802 80
9276 18659 492
21152 12267 834
29153 7550 869
10397 23172 72
13444 15403 835
23819 25581 696
20757 10529 559
10390 21513 241
928 28997 173
14266 25769 159
318 15509 310
566 12961 549
16634 15613 462
12448 6054 759
20540 11213 218
11620 12828 434
27974 3469 98
29454 8125 902
28703 14460 765
4570 2201 888
21417 23557 752
21428 2770 432
6718 25610 510
29655 28278 124
3604 19541 196
28752 2486 286
11777 26201 748
26036 1326 466
4741 20543 174
2254 10126 946
12953 10781 121
10597 26131 814
13426 5277 853
3102 27692 657
28257 23825 109
6777 14677 452
18639 28705 999
18045 24681 226
13388 20947 829
7304 29929 266
29899 12559 301
11589 7126 375
22213 16087 987
23286 18594 82
10417 20634 323
27019 19753 130
2315 26503 872
25792 4200 980
28480 16923 422
6841 26390 98
24397 18330 488
13717 29582 179
2761 1299 337
5092 12021 781
10334 26376 925
24623 19196 614
21294 7365 953
12118 15294 632
21859 29143 294
26443 29971 162
7974 19633 776
2966 10682 932
19833 24849 496
6268 24403 423
4055 11365 479
22286 21151 875
2892 29011 909
29204 27652 688
2970 27195 759
18801 14676 261
11983 7283 725
22069 1258 559
15401 22701 369
28757 11498 700
12218 28003 91
22348 18755 688
25103 24104 748
4276 23293 222
6225 18927 42
27352 14891 244
17472 9336 192
23749 21862 12
21238 25521 47
27948 18084 593
29389 16798 425
26934 23180 702
3497 15692 312
25581 21223 568
16182 9864 614
11594 15255 290
20664 29942 829
26622 25353 104
11606 26635 602
9667 20878 597
1605 13540 534
18187 15208 473
20546 8144 395
8459 4296 144
16838 18206 958
22209 29536 139
23696 8011 457
15609 628 422
20372 1728 406
17051 21907 512
720 28319 393
9301 3599 46
7385 4029 309
6537 25775 495
9819 9565 707
21360 26972 860
18060 22223 911
16488 18873 402
23945 22982 376
25742 21637 237
6562 18168 787
13571 15692 522
27174 11841 32
24492 18611 411
9701 22729 841
3219 18212 834
11407 20433 219
25233 22733 29
1883 6786 779
8444 5600 370
5441 14389 838
23477 25807 738
1038 8623 580
14808 26497 981
27642 24807 745
7016 23346 295
6660 15497 255
20190 29351 997
4651 26634 710
8202 25933 592
16941 21557 353
5888 1074 501
2541 20764 972
8689 5986 964
9094 6979 337
5499 1927 302
11356 9434 902
2639 5882 892
25272 14907 823
12328 15320 78
25942 13394 526
26479 16177 308
5819 8762 363
1106 21361 959
18010 6354 837
6459 26204 451
26017 752 143
13262 23529 12
27868 3841 231
20596 8943 720
3344 12030 416
10038 26834 409
12434 14046 402
26833 23184 790
1247 2559 512
28887 1556 411
25119 24180 488
20950 2328 33
24150 29013 112
1784 22406 54
14810 22233 102
15522 11197 673
4365 26692 277
21123 19576 350
8904 12344 132
7889 23544 950
325 4389 720
9618 13930 903
15710 3351 237
23563 3487 725
4501 8779 818
11135 27723 113
8325 21630 545
24391 9480 866
10629 23438 207
13001 1831 494
8942 4555 98
13922 26914 622
16402 2706 11
1518 26627 150
24312 18237 931
4476 19640 412
27593 21201 786
2409 3356 198
28303 7931 256
27781 5682 598
18170 6087 532
4286 14054 748
7352 8759 9
17383 16600 701
23650 28675 617
3703 5871 934
14918 1573 721
207 29564 361
1782 17130 586
24105 1103 795
26975 14759 943
11327 20413 374
29755 24991 313
13062 8558 225
19669 9535 658
15958 23816 23
28771 101 865
23400 3600 793
8253 18535 762
27227 28300 495
15868 8562 600
23019 18492 17
8000 22612 733
22066 22127 750
20206 3143 163
4488 8625 744
2295 28558 487
29467 23474 560
7877 26592 19
20123 14870 847
2424 14067 558
2776 11392 109
29708 29986 72
27053 7234 350
8841 19763 45
7969 14876 820
12306 14610 939
27293 27619 557
1794 17835 390
23583 10177 841
2260 14981 80
29790 25747 860
11969 21360 902
22455 717 473
13226 6427 748
13852 19061 796
28867 6544 844
1851 24946 940
11816 15291 91
4895 27041 624
7043 23832 321
13871 5236 114
13526 7982 365
25528 18281 14
3653 28563 471
12408 20491 680
28542 15190 17
11804 6520 275
27837 10807 187
18441 22320 493
23286 14139 787
11755 28979 998
20296 7777 973
25943 25107 753
8311 17595 26
24444 25420 867
1477 28280 146
15587 8973 318
8108 27487 789
29146 20051 747
20027 10992 439
25735 2531 857
12766 3094 24
6376 16665 713
15377 13944 88
29158 6242 666
20074 27841 969
8060 26563 440
7695 12131 674
20495 5776 953
9555 10982 88
10589 27833 92
4249 22096 486
18668 16982 124
23561 21540 334
46 19264 111
23118 10260 239
4613 13803 751
21752 25314 149
2750 7737 669
14829 14410 439
7771 13855 179
17820 18761 304
22458 28146 193
25432 229 668
26026 2294 522
4322 24464 148
28503 26587 857
80
19056 29225 29959 25855 14161
175 1304 29810 5702 19542
22000 1349 15068 23032 23840
28134 1176 13491 23723 15689
10702 12624 2829 26302 11233
23296 1867 19505 16012 2360
12653 6097 8336 1983 28250
17603 18127 1286 16578 8215
10600 15031 21874 22011 27684
1168 1028 24366 26129 22898
13221 25272 19564 23221 2027
24537 1220 28095 11782 13375
25181 5077 4453 21115 21203
29744 8541 15542 15871 19540
1590 6048 7454 15005 1703
27050 3376 5915 19795 23157
24735 20128 10131 1674 29729
29718 8566 15179 19167 1766
8966 12074 13783 22199 29389
2584 2687 23460 16792 21056
11435 15474 9083 4342 28592
28976 6677 17386 4810 21311
5141 28322 23739 23140 1533
24615 6837 12315 39 254
1658 3374 26117 15705 22466
5511 10924 24463 1245 9794
13972 28362 361 18951 23193
26111 13158 18327 29766 22308
17848 2420 10067 20125 25005
1766 20588 2807 3568 17771
5429 23768 21469 27695 13706
17206 15078 6124 523 6088
4917 51 7128 24506 21394
28092 24985 5285 3720 27387
11714 1166 17091 25331 18965
20814 2749 8783 15464 1634
28570 28335 20648 7875 25424
10304 1054 2344 9738 10639
13809 7083 6863 22943 16620
22138 20318 9273 25218 16079
15197 19587 4879 26146 1411
19924 13153 29085 1843 16071
13175 13776 13690 27278 5768
15014 1002 5257 792 15255
13304 6679 566 752 5362
26285 10585 26736 18885 28197
1580 10853 2094 8536 9399
15030 12880 4334 3649 20082
6742 12917 21283 24745 10585
1665 16094 18536 28036 18483
27792 27371 21366 15661 27507
24079 3815 8069 3238 3846
351 20520 15920 16718 22339
25249 5954 1204 610 490
1164 10933 7023 6018 27891
12885 26879 26815 5553 1011
11478 7782 28542 2957 18253
27257 11038 8800 10743 16464
22107 10147 23939 21227 12549
4468 7908 19847 21302 2579
22448 1343 2266 27982 150
19477 1647 14908 26164 1841
23306 19758 14168 13897 17307
179 9797 2162 17265 15867
7015 18742 9729 29614 23147
790 19939 19646 26969 25394
29981 13738 29443 22566 17060
8485 10403 29271 22816 27590
26304 1343 17136 10241 8529
29445 24430 26198 23333 22097
13684 19912 11394 2350 20255
6289 7437 29009 722 18708
21737 26825 19838 11027 26915
1927 8737 29986 18254 28784
21133 7772 1130 22016 59
15444 4875 1681 28031 2079
9399 22573 254 4784 14991
26609 22845 8115 10545 12866
12763 94 5086 26484 24802
1925 8920 19913 5722 15406
