998 15
990000179 990000156 990000145 990000144 990000110 990000148 990000058 990000309 990000139 990000212 990000311 990000270 990000118 990000142 990000241 
990000178 990000244 990000058 990000228 990000235 990000270 990000185 990000178 990000142 990000049 990000009 990000200 990000244 990000042 990000134 
990000298 990000217 990000003 990000234 990000082 990000028 990000235 990000121 990000149 990000216 990000225 990000248 990000127 990000208 990000225 
990000213 990000214 990000035 990000108 990000280 990000158 990000247 990000183 990000230 990000137 990000229 990000156 990000153 990000064 990000038 
990000034 990000305 990000208 990000099 990000280 990000164 990000313 990000069 990000013 990000086 990000056 990000073 990000184 990000085 990000152 
990000155 990000005 990000001 990000308 990000042 990000089 990000023 990000265 990000305 990000002 990000216 990000209 990000314 990000207 990000074 
990000121 990000022 990000219 990000022 990000058 990000126 990000237 990000220 990000224 990000243 990000308 990000185 990000177 990000150 990000164 
990000214 990000137 990000095 990000138 990000261 990000054 990000141 990000304 990000219 990000129 990000287 990000265 990000075 990000223 990000264 
990000140 990000241 990000244 990000135 990000076 990000031 990000309 990000082 990000216 990000280 990000096 990000198 990000224 990000228 990000038 
990000148 990000053 990000205 990000044 990000233 990000241 990000075 990000194 990000125 990000279 990000032 990000190 990000175 990000118 990000195 
990000277 990000186 990000041 990000036 990000075 990000121 990000003 990000193 990000018 990000291 990000132 990000021 990000234 990000122 990000053 
990000065 990000165 990000187 990000280 990000157 990000272 990000095 990000020 990000202 990000027 990000091 990000264 990000081 990000188 990000011 
990000003 990000004 990000196 990000030 990000008 990000028 990000115 990000195 990000099 990000253 990000287 990000025 990000045 990000244 990000116 
990000099 990000195 990000210 990000121 990000231 990000263 990000209 990000216 990000018 990000308 990000250 990000249 990000109 990000073 990000020 
990000099 990000173 990000050 990000230 990000088 990000002 990000140 990000305 990000072 990000247 990000292 990000249 990000009 990000179 990000059 
990000143 990000144 990000009 990000202 990000101 990000001 990000008 990000095 990000059 990000118 990000290 990000105 990000042 990000288 990000196 
990000151 990000052 990000307 990000075 990000269 990000201 990000153 990000072 990000012 990000039 990000126 990000156 990000121 990000150 990000236 
990000219 990000122 990000092 990000180 990000220 990000026 990000152 990000263 990000262 990000120 990000130 990000141 990000219 990000304 990000020 
990000271 990000157 990000215 990000085 990000144 990000147 990000298 990000294 990000251 990000231 990000278 990000298 990000289 990000217 990000000 
990000104 990000001 990000180 990000282 990000161 990000158 990000084 990000095 990000281 990000293 990000061 990000302 990000025 990000280 990000242 
990000287 990000243 990000168 990000078 990000215 990000219 990000098 990000083 990000211 990000243 990000258 990000042 990000256 990000278 990000006 
990000088 990000196 990000176 990000290 990000238 990000151 990000191 990000124 990000109 990000153 990000002 990000273 990000061 990000025 990000182 
990000229 990000121 990000215 990000051 990000170 990000004 990000312 990000274 990000305 990000197 990000178 990000197 990000274 990000043 990000092 
990000048 990000035 990000024 990000049 990000012 990000172 990000269 990000044 990000207 990000248 990000275 990000304 990000001 990000297 990000266 
990000085 990000028 990000019 990000293 990000080 990000179 990000269 990000136 990000271 990000038 990000145 990000279 990000093 990000284 990000031 
990000164 990000121 990000158 990000241 990000052 990000058 990000037 990000168 990000077 990000083 990000011 990000096 990000010 990000100 990000080 
990000255 990000188 990000194 990000122 990000249 990000146 990000143 990000165 990000265 990000020 990000178 990000203 990000166 990000286 990000110 
990000148 990000253 990000271 990000166 990000221 990000156 990000258 990000069 990000084 990000092 990000153 990000211 990000297 990000269 990000002 
990000301 990000285 990000149 990000308 990000185 990000182 990000149 990000212 990000306 990000172 990000249 990000065 990000182 990000077 990000051 
990000315 990000135 990000085 990000096 990000078 990000117 990000257 990000264 990000093 990000217 990000043 990000313 990000167 990000312 990000075 
990000020 990000199 990000163 990000075 990000193 990000196 990000152 990000298 990000042 990000276 990000182 990000216 990000135 990000148 990000084 
990000100 990000242 990000008 990000202 990000271 990000128 990000311 990000061 990000162 990000170 990000089 990000158 990000051 990000220 990000002 
990000034 990000226 990000019 990000192 990000218 990000253 990000014 990000041 990000160 990000164 990000228 990000088 990000103 990000041 990000074 
990000167 990000090 990000115 990000110 990000091 990000237 990000242 990000041 990000137 990000045 990000112 990000272 990000161 990000219 990000012 
990000219 990000066 990000229 990000199 990000060 990000311 990000054 990000261 990000291 990000059 990000253 990000287 990000034 990000241 990000298 
990000254 990000006 990000215 990000050 990000276 990000147 990000134 990000194 990000298 990000235 990000239 990000199 990000075 990000187 990000299 
990000314 990000311 990000247 990000147 990000301 990000068 990000253 990000259 990000103 990000209 990000262 990000226 990000195 990000194 990000070 
990000087 990000237 990000093 990000111 990000133 990000210 990000114 990000109 990000079 990000051 990000047 990000262 990000275 990000249 990000224 
990000059 990000138 990000246 990000066 990000236 990000073 990000225 990000095 990000152 990000216 990000249 990000227 990000213 990000114 990000062 
990000247 990000007 990000119 990000077 990000205 990000201 990000091 990000015 990000173 990000304 990000008 990000166 990000105 990000246 990000215 
990000049 990000173 990000116 990000169 990000119 990000154 990000283 990000127 990000211 990000182 990000135 990000082 990000128 990000177 990000286 
990000147 990000030 990000265 990000220 990000231 990000126 990000034 990000279 990000262 990000110 990000049 990000312 990000283 990000209 990000300 
990000091 990000053 990000154 990000239 990000018 990000178 990000164 990000215 990000306 990000039 990000130 990000058 990000091 990000005 990000252 
990000229 990000075 990000057 990000211 990000011 990000263 990000048 990000141 990000283 990000191 990000135 990000273 990000170 990000105 990000014 
990000054 990000116 990000053 990000096 990000095 990000310 990000238 990000304 990000059 990000230 990000226 990000272 990000018 990000284 990000217 
990000285 990000285 990000137 990000022 990000304 990000149 990000007 990000179 990000014 990000092 990000194 990000184 990000048 990000245 990000268 
990000295 990000307 990000071 990000297 990000049 990000271 990000270 990000190 990000046 990000247 990000171 990000205 990000048 990000010 990000267 
990000118 990000135 990000214 990000187 990000167 990000145 990000004 990000149 990000016 990000199 990000045 990000108 990000094 990000050 990000110 
990000027 990000015 990000082 990000176 990000138 990000007 990000233 990000188 990000194 990000187 990000215 990000286 990000304 990000193 990000278 
990000013 990000237 990000138 990000131 990000184 990000054 990000113 990000030 990000197 990000093 990000089 990000097 990000202 990000041 990000003 
990000017 990000262 990000077 990000255 990000210 990000007 990000313 990000130 990000082 990000049 990000018 990000014 990000029 990000235 990000121 
990000083 990000241 990000197 990000136 990000218 990000095 990000263 990000166 990000137 990000168 990000280 990000266 990000068 990000132 990000055 
990000076 990000057 990000308 990000234 990000185 990000304 990000171 990000262 990000242 990000058 990000008 990000072 990000024 990000021 990000292 
990000245 990000032 990000193 990000090 990000225 990000288 990000107 990000285 990000203 990000211 990000229 990000210 990000087 990000060 990000216 
990000283 990000137 990000195 990000055 990000093 990000111 990000129 990000229 990000209 990000222 990000231 990000115 990000027 990000052 990000306 
990000269 990000165 990000051 990000252 990000052 990000263 990000223 990000280 990000110 990000059 990000072 990000305 990000239 990000066 990000091 
990000159 990000116 990000204 990000260 990000247 990000051 990000095 990000106 990000210 990000196 990000036 990000024 990000162 990000065 990000107 
990000208 990000250 990000138 990000110 990000235 990000301 990000032 990000289 990000102 990000278 990000029 990000034 990000098 990000028 990000257 
990000174 990000300 990000223 990000166 990000246 990000228 990000280 990000032 990000110 990000113 990000061 990000192 990000140 990000054 990000173 
990000232 990000144 990000162 990000239 990000088 990000236 990000276 990000106 990000038 990000029 990000058 990000065 990000074 990000043 990000009 
990000104 990000185 990000252 990000210 990000132 990000297 990000116 990000138 990000099 990000230 990000258 990000001 990000004 990000025 990000240 
990000014 990000278 990000292 990000034 990000096 990000144 990000087 990000231 990000178 990000277 990000176 990000225 990000219 990000273 990000103 
990000260 990000221 990000293 990000113 990000122 990000097 990000262 990000024 990000072 990000228 990000206 990000308 990000194 990000255 990000012 
990000167 990000314 990000070 990000159 990000249 990000165 990000072 990000063 990000075 990000223 990000024 990000109 990000251 990000218 990000045 
990000182 990000009 990000167 990000078 990000027 990000031 990000022 990000005 990000014 990000253 990000149 990000023 990000298 990000064 990000248 
990000253 990000274 990000006 990000025 990000172 990000298 990000131 990000009 990000096 990000058 990000185 990000128 990000156 990000278 990000235 
990000120 990000120 990000272 990000069 990000198 990000288 990000094 990000169 990000086 990000046 990000042 990000039 990000066 990000115 990000035 
990000005 990000051 990000192 990000224 990000042 990000005 990000278 990000109 990000014 990000210 990000246 990000059 990000227 990000151 990000101 
990000115 990000237 990000212 990000299 990000267 990000133 990000035 990000043 990000002 990000077 990000296 990000240 990000083 990000101 990000041 
990000076 990000054 990000087 990000019 990000221 990000043 990000259 990000006 990000222 990000218 990000142 990000204 990000273 990000029 990000182 
990000154 990000030 990000050 990000067 990000272 990000072 990000279 990000211 990000224 990000035 990000239 990000126 990000131 990000079 990000097 
990000153 990000017 990000075 990000073 990000278 990000100 990000202 990000184 990000101 990000140 990000014 990000003 990000151 990000203 990000140 
990000247 990000206 990000298 990000213 990000094 990000098 990000177 990000298 990000063 990000081 990000086 990000228 990000313 990000263 990000082 
990000087 990000280 990000313 990000273 990000214 990000049 990000209 990000209 990000020 990000245 990000196 990000039 990000156 990000286 990000173 
990000059 990000145 990000039 990000087 990000163 990000033 990000047 990000179 990000228 990000225 990000113 990000024 990000026 990000170 990000240 
990000226 990000167 990000124 990000096 990000247 990000167 990000098 990000014 990000238 990000108 990000304 990000136 990000063 990000043 990000050 
990000149 990000104 990000156 990000002 990000228 990000297 990000177 990000262 990000276 990000016 990000135 990000009 990000276 990000233 990000090 
990000229 990000084 990000125 990000172 990000179 990000005 990000078 990000146 990000279 990000225 990000164 990000232 990000076 990000255 990000280 
990000168 990000218 990000038 990000120 990000066 990000165 990000197 990000052 990000129 990000295 990000163 990000146 990000315 990000042 990000064 
990000194 990000124 990000017 990000145 990000294 990000011 990000050 990000183 990000093 990000086 990000246 990000108 990000083 990000309 990000289 
990000151 990000066 990000138 990000078 990000019 990000181 990000173 990000169 990000300 990000061 990000241 990000274 990000159 990000237 990000221 
990000227 990000161 990000073 990000082 990000146 990000031 990000267 990000262 990000022 990000095 990000302 990000038 990000237 990000184 990000022 
990000131 990000280 990000025 990000085 990000233 990000155 990000069 990000219 990000130 990000105 990000275 990000086 990000230 990000058 990000224 
990000046 990000279 990000218 990000047 990000064 990000214 990000080 990000266 990000314 990000171 990000019 990000151 990000252 990000176 990000313 
990000141 990000259 990000233 990000055 990000175 990000145 990000313 990000218 990000057 990000074 990000223 990000019 990000020 990000216 990000216 
990000050 990000305 990000023 990000114 990000042 990000022 990000012 990000262 990000127 990000290 990000081 990000272 990000309 990000060 990000086 
990000183 990000098 990000044 990000305 990000085 990000079 990000098 990000230 990000022 990000141 990000249 990000010 990000045 990000045 990000202 
990000295 990000043 990000040 990000016 990000061 990000311 990000059 990000073 990000238 990000255 990000119 990000167 990000042 990000155 990000308 
990000258 990000282 990000110 990000128 990000043 990000308 990000038 990000121 990000047 990000224 990000144 990000250 990000139 990000187 990000036 
990000029 990000080 990000295 990000219 990000083 990000268 990000073 990000256 990000201 990000230 990000132 990000186 990000243 990000101 990000219 
990000179 990000016 990000193 990000155 990000235 990000220 990000283 990000092 990000268 990000059 990000024 990000295 990000174 990000163 990000141 
990000293 990000216 990000038 990000088 990000188 990000273 990000151 990000216 990000033 990000178 990000296 990000144 990000176 990000105 990000285 
990000300 990000178 990000155 990000137 990000225 990000172 990000305 990000052 990000056 990000304 990000083 990000194 990000239 990000227 990000122 
990000142 990000309 990000152 990000117 990000023 990000041 990000119 990000043 990000315 990000202 990000010 990000161 990000103 990000175 990000236 
990000262 990000004 990000236 990000017 990000049 990000223 990000142 990000127 990000027 990000201 990000278 990000306 990000058 990000071 990000086 
990000144 990000051 990000001 990000297 990000168 990000155 990000074 990000078 990000022 990000042 990000249 990000245 990000044 990000062 990000096 
990000279 990000189 990000147 990000124 990000253 990000238 990000127 990000162 990000180 990000095 990000111 990000035 990000286 990000033 990000211 
990000248 990000302 990000141 990000157 990000118 990000207 990000113 990000046 990000253 990000061 990000182 990000286 990000276 990000081 990000040 
990000095 990000202 990000144 990000140 990000134 990000057 990000275 990000047 990000007 990000314 990000255 990000039 990000160 990000170 990000282 
990000029 990000253 990000266 990000032 990000276 990000040 990000027 990000037 990000135 990000186 990000258 990000028 990000107 990000171 990000023 
990000253 990000076 990000037 990000189 990000254 990000267 990000301 990000091 990000190 990000022 990000155 990000184 990000036 990000257 990000117 
990000215 990000031 990000213 990000144 990000242 990000154 990000256 990000300 990000286 990000145 990000122 990000163 990000095 990000157 990000125 
990000102 990000084 990000047 990000129 990000041 990000081 990000021 990000304 990000153 990000142 990000050 990000269 990000101 990000274 990000065 
990000096 990000268 990000296 990000245 990000267 990000104 990000306 990000245 990000297 990000173 990000105 990000105 990000003 990000117 990000218 
990000259 990000008 990000257 990000258 990000214 990000099 990000261 990000186 990000088 990000233 990000311 990000082 990000123 990000130 990000131 
990000169 990000287 990000287 990000100 990000230 990000165 990000158 990000125 990000243 990000294 990000135 990000019 990000126 990000203 990000308 
990000280 990000202 990000305 990000096 990000117 990000013 990000070 990000027 990000042 990000247 990000293 990000259 990000265 990000287 990000077 
990000307 990000167 990000221 990000050 990000288 990000256 990000173 990000193 990000130 990000210 990000114 990000187 990000186 990000230 990000119 
990000197 990000022 990000056 990000098 990000225 990000154 990000142 990000188 990000218 990000019 990000093 990000242 990000275 990000127 990000141 
990000101 990000120 990000054 990000012 990000186 990000002 990000022 990000114 990000134 990000266 990000118 990000177 990000273 990000093 990000086 
990000154 990000013 990000209 990000057 990000037 990000200 990000229 990000248 990000244 990000049 990000280 990000060 990000156 990000046 990000022 
990000131 990000073 990000144 990000096 990000041 990000141 990000008 990000215 990000292 990000233 990000247 990000096 990000036 990000273 990000197 
990000169 990000147 990000183 990000273 990000153 990000273 990000255 990000078 990000215 990000199 990000051 990000283 990000035 990000211 990000296 
990000143 990000026 990000077 990000203 990000132 990000065 990000218 990000020 990000183 990000037 990000008 990000192 990000065 990000192 990000087 
990000314 990000083 990000301 990000181 990000005 990000077 990000243 990000010 990000018 990000090 990000094 990000255 990000088 990000005 990000143 
990000202 990000018 990000145 990000023 990000039 990000093 990000225 990000115 990000140 990000103 990000147 990000248 990000140 990000065 990000032 
990000004 990000035 990000048 990000061 990000007 990000268 990000060 990000059 990000257 990000184 990000214 990000203 990000041 990000188 990000225 
990000165 990000047 990000158 990000228 990000064 990000001 990000226 990000181 990000091 990000134 990000134 990000024 990000192 990000149 990000198 
990000211 990000116 990000245 990000060 990000038 990000232 990000049 990000043 990000232 990000165 990000193 990000003 990000315 990000108 990000114 
990000182 990000247 990000114 990000133 990000163 990000195 990000111 990000220 990000099 990000293 990000134 990000070 990000286 990000109 990000078 
990000022 990000017 990000313 990000150 990000079 990000017 990000262 990000165 990000192 990000172 990000081 990000241 990000125 990000183 990000214 
990000295 990000052 990000313 990000134 990000288 990000244 990000266 990000159 990000308 990000107 990000024 990000218 990000254 990000071 990000234 
990000176 990000021 990000296 990000072 990000273 990000188 990000295 990000172 990000219 990000066 990000077 990000266 990000078 990000237 990000071 
990000112 990000001 990000042 990000182 990000002 990000118 990000198 990000300 990000257 990000253 990000030 990000156 990000143 990000209 990000179 
990000269 990000232 990000015 990000314 990000039 990000225 990000046 990000195 990000051 990000312 990000237 990000216 990000214 990000093 990000217 
990000035 990000165 990000034 990000257 990000039 990000246 990000143 990000032 990000010 990000276 990000245 990000235 990000281 990000058 990000114 
990000044 990000061 990000000 990000186 990000172 990000091 990000267 990000151 990000131 990000267 990000076 990000169 990000024 990000188 990000256 
990000001 990000161 990000029 990000089 990000125 990000254 990000173 990000230 990000077 990000178 990000059 990000066 990000006 990000138 990000213 
990000261 990000246 990000285 990000188 990000216 990000050 990000210 990000101 990000068 990000225 990000246 990000060 990000278 990000226 990000307 
990000004 990000124 990000218 990000162 990000085 990000029 990000229 990000272 990000311 990000192 990000280 990000109 990000196 990000057 990000305 
990000303 990000062 990000161 990000292 990000202 990000024 990000041 990000026 990000296 990000048 990000218 990000189 990000046 990000159 990000266 
990000041 990000244 990000137 990000264 990000264 990000140 990000025 990000163 990000038 990000055 990000167 990000023 990000176 990000245 990000247 
990000077 990000036 990000212 990000043 990000030 990000150 990000021 990000265 990000179 990000108 990000280 990000140 990000293 990000038 990000059 
990000222 990000282 990000153 990000086 990000264 990000010 990000067 990000151 990000091 990000273 990000024 990000011 990000007 990000054 990000129 
990000194 990000247 990000225 990000252 990000242 990000238 990000120 990000246 990000068 990000139 990000078 990000170 990000276 990000025 990000145 
990000047 990000160 990000206 990000295 990000254 990000017 990000143 990000200 990000015 990000123 990000237 990000265 990000307 990000196 990000013 
990000023 990000096 990000032 990000160 990000035 990000258 990000202 990000270 990000118 990000238 990000164 990000154 990000026 990000190 990000194 
990000243 990000135 990000278 990000215 990000063 990000177 990000036 990000309 990000047 990000071 990000152 990000172 990000293 990000061 990000143 
990000186 990000043 990000065 990000123 990000228 990000029 990000066 990000044 990000294 990000267 990000182 990000027 990000306 990000094 990000059 
990000238 990000168 990000142 990000105 990000098 990000007 990000038 990000209 990000218 990000073 990000097 990000284 990000213 990000018 990000069 
990000015 990000076 990000109 990000019 990000039 990000163 990000304 990000084 990000042 990000291 990000091 990000173 990000287 990000226 990000024 
990000243 990000169 990000048 990000204 990000030 990000244 990000078 990000007 990000221 990000013 990000230 990000275 990000083 990000257 990000244 
990000305 990000314 990000081 990000194 990000241 990000264 990000083 990000204 990000121 990000308 990000234 990000023 990000242 990000040 990000293 
990000157 990000196 990000121 990000172 990000006 990000212 990000031 990000284 990000132 990000297 990000113 990000130 990000239 990000102 990000002 
990000211 990000256 990000289 990000297 990000133 990000049 990000146 990000217 990000199 990000146 990000143 990000032 990000040 990000181 990000049 
990000128 990000100 990000002 990000240 990000092 990000156 990000010 990000306 990000029 990000025 990000163 990000172 990000202 990000296 990000309 
990000034 990000259 990000307 990000017 990000222 990000124 990000261 990000289 990000272 990000300 990000065 990000113 990000198 990000122 990000011 
990000127 990000145 990000300 990000088 990000199 990000082 990000015 990000017 990000006 990000053 990000212 990000039 990000022 990000195 990000228 
990000172 990000163 990000239 990000208 990000143 990000075 990000156 990000241 990000219 990000314 990000047 990000191 990000152 990000117 990000003 
990000209 990000311 990000246 990000218 990000146 990000073 990000129 990000084 990000108 990000091 990000204 990000052 990000193 990000310 990000315 
990000096 990000112 990000172 990000163 990000280 990000098 990000169 990000234 990000187 990000158 990000253 990000200 990000251 990000052 990000099 
990000215 990000152 990000301 990000207 990000070 990000169 990000149 990000303 990000309 990000011 990000310 990000018 990000062 990000177 990000242 
990000170 990000057 990000130 990000116 990000293 990000296 990000311 990000010 990000287 990000074 990000171 990000309 990000017 990000103 990000164 
990000030 990000296 990000005 990000198 990000069 990000293 990000056 990000248 990000013 990000081 990000133 990000148 990000213 990000066 990000230 
990000050 990000008 990000080 990000015 990000276 990000313 990000075 990000306 990000307 990000074 990000186 990000287 990000143 990000212 990000193 
990000011 990000050 990000296 990000005 990000084 990000045 990000299 990000044 990000038 990000268 990000150 990000289 990000135 990000077 990000217 
990000063 990000155 990000113 990000079 990000210 990000171 990000312 990000191 990000287 990000261 990000252 990000099 990000039 990000073 990000205 
990000185 990000123 990000216 990000229 990000228 990000168 990000216 990000165 990000142 990000168 990000305 990000246 990000128 990000082 990000297 
990000020 990000182 990000013 990000256 990000172 990000191 990000241 990000047 990000101 990000130 990000243 990000236 990000182 990000314 990000256 
990000284 990000040 990000106 990000225 990000114 990000298 990000052 990000136 990000217 990000186 990000053 990000284 990000130 990000244 990000070 
990000100 990000220 990000043 990000096 990000228 990000011 990000017 990000220 990000181 990000189 990000298 990000087 990000020 990000117 990000116 
990000277 990000270 990000099 990000252 990000269 990000077 990000025 990000291 990000178 990000304 990000107 990000165 990000010 990000242 990000215 
990000315 990000242 990000039 990000185 990000064 990000031 990000188 990000198 990000163 990000286 990000194 990000036 990000001 990000088 990000110 
990000187 990000108 990000038 990000094 990000220 990000113 990000224 990000009 990000201 990000021 990000121 990000294 990000118 990000220 990000256 
990000001 990000153 990000152 990000159 990000019 990000138 990000241 990000227 990000065 990000151 990000177 990000013 990000112 990000175 990000181 
990000234 990000230 990000210 990000085 990000283 990000154 990000262 990000135 990000025 990000051 990000046 990000036 990000204 990000061 990000315 
990000092 990000027 990000193 990000100 990000225 990000145 990000000 990000153 990000127 990000028 990000035 990000036 990000205 990000045 990000267 
990000296 990000169 990000173 990000242 990000085 990000071 990000241 990000111 990000073 990000286 990000114 990000297 990000028 990000292 990000209 
990000188 990000296 990000061 990000034 990000081 990000221 990000163 990000092 990000270 990000120 990000291 990000242 990000114 990000139 990000057 
990000238 990000087 990000034 990000223 990000173 990000279 990000250 990000102 990000249 990000034 990000253 990000114 990000144 990000109 990000015 
990000037 990000110 990000137 990000058 990000123 990000007 990000311 990000162 990000119 990000268 990000216 990000220 990000123 990000205 990000210 
990000146 990000219 990000020 990000253 990000300 990000226 990000235 990000217 990000152 990000026 990000305 990000205 990000014 990000079 990000100 
990000117 990000003 990000143 990000301 990000018 990000277 990000199 990000177 990000166 990000180 990000115 990000172 990000020 990000282 990000217 
990000105 990000019 990000283 990000057 990000156 990000259 990000212 990000293 990000157 990000097 990000267 990000050 990000014 990000150 990000060 
990000253 990000300 990000191 990000296 990000134 990000296 990000137 990000193 990000263 990000003 990000194 990000080 990000292 990000274 990000061 
990000248 990000007 990000286 990000013 990000292 990000137 990000064 990000118 990000305 990000258 990000300 990000113 990000267 990000144 990000021 
990000283 990000075 990000288 990000242 990000077 990000262 990000178 990000029 990000077 990000226 990000040 990000111 990000162 990000008 990000094 
990000209 990000043 990000268 990000039 990000268 990000168 990000023 990000049 990000293 990000094 990000214 990000164 990000016 990000254 990000211 
990000267 990000304 990000181 990000291 990000072 990000224 990000273 990000221 990000219 990000063 990000145 990000001 990000134 990000264 990000008 
990000153 990000162 990000157 990000306 990000004 990000211 990000299 990000052 990000262 990000011 990000275 990000011 990000217 990000215 990000258 
990000084 990000221 990000191 990000272 990000261 990000292 990000017 990000300 990000001 990000293 990000145 990000073 990000199 990000188 990000073 
990000138 990000071 990000015 990000182 990000090 990000246 990000093 990000076 990000095 990000301 990000235 990000202 990000070 990000073 990000201 
990000306 990000064 990000063 990000052 990000288 990000218 990000269 990000061 990000027 990000276 990000091 990000230 990000032 990000285 990000242 
990000036 990000041 990000132 990000226 990000315 990000223 990000300 990000079 990000120 990000131 990000164 990000019 990000220 990000297 990000166 
990000096 990000037 990000243 990000275 990000168 990000228 990000125 990000288 990000126 990000176 990000309 990000058 990000041 990000268 990000020 
990000005 990000041 990000117 990000151 990000308 990000047 990000227 990000222 990000022 990000276 990000155 990000034 990000186 990000118 990000127 
990000242 990000283 990000196 990000223 990000149 990000227 990000173 990000232 990000024 990000251 990000137 990000268 990000257 990000000 990000269 
990000148 990000185 990000175 990000302 990000255 990000305 990000077 990000149 990000248 990000109 990000098 990000079 990000168 990000047 990000025 
990000066 990000222 990000015 990000193 990000281 990000238 990000295 990000264 990000075 990000302 990000308 990000220 990000300 990000009 990000294 
990000104 990000097 990000112 990000055 990000130 990000263 990000114 990000148 990000118 990000060 990000106 990000097 990000195 990000155 990000313 
990000020 990000201 990000243 990000271 990000058 990000032 990000048 990000161 990000299 990000311 990000118 990000281 990000309 990000189 990000017 
990000315 990000028 990000136 990000223 990000153 990000030 990000289 990000098 990000078 990000004 990000177 990000015 990000134 990000195 990000061 
990000144 990000243 990000151 990000230 990000097 990000292 990000273 990000020 990000303 990000006 990000280 990000122 990000215 990000185 990000039 
990000067 990000130 990000006 990000075 990000026 990000289 990000191 990000186 990000290 990000306 990000276 990000237 990000173 990000004 990000014 
990000293 990000052 990000242 990000275 990000078 990000204 990000148 990000059 990000238 990000029 990000315 990000040 990000137 990000050 990000100 
990000094 990000249 990000011 990000192 990000106 990000303 990000264 990000045 990000038 990000000 990000087 990000154 990000310 990000040 990000086 
990000170 990000287 990000104 990000244 990000041 990000019 990000266 990000211 990000292 990000147 990000199 990000127 990000108 990000166 990000212 
990000291 990000070 990000199 990000181 990000091 990000288 990000115 990000100 990000183 990000189 990000230 990000226 990000098 990000140 990000241 
990000015 990000055 990000097 990000266 990000228 990000076 990000137 990000209 990000272 990000291 990000197 990000251 990000054 990000159 990000186 
990000134 990000204 990000025 990000141 990000218 990000058 990000072 990000116 990000109 990000310 990000012 990000219 990000223 990000089 990000313 
990000210 990000269 990000159 990000014 990000280 990000237 990000134 990000234 990000118 990000003 990000014 990000168 990000095 990000305 990000130 
990000035 990000241 990000035 990000288 990000073 990000134 990000302 990000096 990000155 990000277 990000220 990000297 990000129 990000081 990000161 
990000217 990000130 990000066 990000170 990000012 990000282 990000197 990000205 990000004 990000029 990000247 990000078 990000262 990000254 990000294 
990000223 990000238 990000044 990000025 990000044 990000258 990000293 990000195 990000163 990000071 990000158 990000048 990000255 990000141 990000248 
990000145 990000240 990000010 990000148 990000283 990000140 990000278 990000098 990000099 990000014 990000167 990000005 990000134 990000071 990000138 
990000104 990000090 990000003 990000200 990000022 990000190 990000243 990000009 990000250 990000221 990000056 990000222 990000198 990000239 990000048 
990000166 990000279 990000197 990000124 990000264 990000154 990000044 990000204 990000053 990000280 990000034 990000297 990000124 990000206 990000290 
990000024 990000112 990000124 990000255 990000035 990000182 990000145 990000105 990000034 990000044 990000200 990000140 990000115 990000263 990000276 
990000055 990000278 990000076 990000112 990000171 990000169 990000259 990000014 990000163 990000004 990000014 990000019 990000025 990000092 990000269 
990000240 990000095 990000255 990000146 990000065 990000081 990000033 990000070 990000057 990000200 990000287 990000289 990000136 990000185 990000155 
990000145 990000102 990000033 990000133 990000199 990000153 990000021 990000175 990000175 990000014 990000211 990000037 990000083 990000099 990000190 
990000088 990000243 990000086 990000077 990000110 990000125 990000295 990000136 990000155 990000274 990000194 990000164 990000301 990000159 990000252 
990000178 990000280 990000260 990000261 990000075 990000285 990000263 990000224 990000189 990000002 990000112 990000180 990000195 990000227 990000089 
990000023 990000000 990000133 990000171 990000290 990000228 990000282 990000290 990000310 990000308 990000147 990000264 990000312 990000229 990000023 
990000305 990000017 990000056 990000017 990000156 990000298 990000111 990000150 990000096 990000223 990000025 990000142 990000302 990000083 990000065 
990000222 990000064 990000257 990000275 990000112 990000203 990000115 990000096 990000088 990000211 990000258 990000229 990000051 990000082 990000063 
990000071 990000171 990000261 990000031 990000179 990000064 990000112 990000259 990000267 990000180 990000233 990000140 990000095 990000227 990000213 
990000298 990000011 990000226 990000176 990000152 990000158 990000075 990000260 990000001 990000169 990000158 990000082 990000011 990000275 990000061 
990000270 990000099 990000098 990000240 990000002 990000202 990000072 990000020 990000306 990000257 990000168 990000155 990000024 990000025 990000029 
990000105 990000177 990000199 990000267 990000027 990000246 990000215 990000067 990000087 990000127 990000028 990000050 990000166 990000225 990000085 
990000070 990000031 990000159 990000284 990000018 990000269 990000019 990000215 990000101 990000081 990000245 990000193 990000059 990000267 990000240 
990000044 990000121 990000292 990000278 990000008 990000248 990000058 990000056 990000184 990000085 990000233 990000170 990000060 990000233 990000246 
990000050 990000196 990000038 990000071 990000028 990000227 990000315 990000060 990000006 990000128 990000187 990000159 990000125 990000197 990000006 
990000052 990000085 990000175 990000257 990000032 990000148 990000283 990000005 990000105 990000287 990000094 990000028 990000299 990000314 990000253 
990000049 990000295 990000187 990000020 990000263 990000107 990000083 990000262 990000177 990000080 990000078 990000058 990000074 990000273 990000290 
990000174 990000274 990000185 990000283 990000235 990000031 990000205 990000147 990000163 990000112 990000273 990000315 990000073 990000219 990000226 
990000287 990000110 990000278 990000206 990000134 990000297 990000001 990000137 990000130 990000034 990000041 990000272 990000139 990000249 990000227 
990000193 990000040 990000041 990000168 990000292 990000082 990000261 990000073 990000187 990000227 990000071 990000260 990000014 990000096 990000128 
990000308 990000258 990000158 990000205 990000048 990000253 990000241 990000139 990000312 990000211 990000179 990000091 990000153 990000118 990000088 
990000309 990000072 990000306 990000050 990000116 990000218 990000056 990000282 990000259 990000113 990000138 990000072 990000005 990000288 990000192 
990000050 990000041 990000270 990000096 990000145 990000037 990000039 990000266 990000021 990000062 990000260 990000071 990000140 990000101 990000262 
990000313 990000011 990000219 990000042 990000204 990000070 990000024 990000122 990000141 990000055 990000127 990000249 990000066 990000202 990000019 
990000302 990000311 990000182 990000227 990000217 990000190 990000109 990000186 990000207 990000095 990000299 990000066 990000081 990000071 990000179 
990000076 990000196 990000120 990000059 990000217 990000261 990000302 990000103 990000234 990000298 990000031 990000025 990000079 990000199 990000055 
990000018 990000251 990000056 990000071 990000058 990000229 990000044 990000077 990000251 990000212 990000179 990000301 990000177 990000139 990000127 
990000209 990000310 990000020 990000023 990000237 990000275 990000292 990000250 990000270 990000105 990000284 990000291 990000186 990000128 990000209 
990000025 990000229 990000110 990000011 990000036 990000293 990000239 990000073 990000061 990000166 990000117 990000067 990000057 990000253 990000077 
990000145 990000310 990000183 990000231 990000033 990000311 990000107 990000197 990000192 990000027 990000275 990000244 990000215 990000270 990000050 
990000284 990000107 990000217 990000088 990000043 990000029 990000173 990000083 990000153 990000050 990000235 990000003 990000140 990000114 990000092 
990000053 990000249 990000164 990000130 990000303 990000261 990000091 990000308 990000169 990000000 990000290 990000101 990000313 990000311 990000200 
990000269 990000195 990000061 990000103 990000281 990000076 990000257 990000092 990000214 990000102 990000184 990000167 990000058 990000033 990000265 
990000139 990000180 990000175 990000131 990000296 990000179 990000060 990000291 990000034 990000234 990000253 990000207 990000156 990000204 990000048 
990000212 990000029 990000265 990000165 990000151 990000151 990000315 990000241 990000216 990000255 990000165 990000046 990000257 990000198 990000177 
990000168 990000118 990000313 990000213 990000225 990000161 990000293 990000005 990000257 990000195 990000202 990000242 990000126 990000012 990000219 
990000261 990000191 990000134 990000135 990000015 990000208 990000298 990000233 990000297 990000115 990000000 990000280 990000012 990000091 990000222 
990000054 990000146 990000053 990000128 990000272 990000259 990000200 990000024 990000235 990000212 990000276 990000291 990000040 990000002 990000075 
990000262 990000195 990000310 990000180 990000049 990000083 990000293 990000283 990000021 990000075 990000085 990000106 990000241 990000081 990000277 
990000197 990000244 990000283 990000112 990000198 990000108 990000284 990000198 990000253 990000065 990000258 990000244 990000011 990000057 990000270 
990000215 990000142 990000236 990000312 990000212 990000122 990000077 990000219 990000284 990000036 990000282 990000055 990000121 990000254 990000275 
990000280 990000027 990000089 990000139 990000160 990000239 990000292 990000224 990000037 990000202 990000290 990000042 990000238 990000289 990000208 
990000135 990000137 990000185 990000013 990000248 990000303 990000035 990000301 990000173 990000284 990000093 990000070 990000272 990000087 990000263 
990000299 990000086 990000084 990000213 990000073 990000315 990000303 990000146 990000079 990000069 990000054 990000026 990000129 990000121 990000207 
990000187 990000049 990000199 990000257 990000132 990000258 990000193 990000002 990000096 990000168 990000295 990000043 990000094 990000201 990000047 
990000237 990000109 990000205 990000290 990000040 990000281 990000018 990000016 990000007 990000083 990000288 990000131 990000097 990000200 990000244 
990000168 990000093 990000178 990000252 990000155 990000258 990000188 990000300 990000074 990000310 990000157 990000049 990000046 990000222 990000129 
990000281 990000163 990000159 990000233 990000008 990000071 990000090 990000118 990000244 990000091 990000199 990000297 990000261 990000119 990000149 
990000163 990000184 990000205 990000056 990000066 990000203 990000209 990000016 990000305 990000042 990000281 990000263 990000015 990000083 990000042 
990000230 990000296 990000226 990000132 990000042 990000161 990000224 990000269 990000308 990000071 990000159 990000234 990000141 990000188 990000179 
990000219 990000302 990000279 990000314 990000146 990000020 990000143 990000152 990000048 990000243 990000255 990000050 990000173 990000085 990000302 
990000262 990000183 990000008 990000192 990000092 990000046 990000279 990000147 990000173 990000116 990000188 990000006 990000263 990000094 990000128 
990000235 990000315 990000228 990000040 990000000 990000080 990000256 990000200 990000093 990000225 990000159 990000099 990000259 990000179 990000005 
990000205 990000199 990000182 990000048 990000146 990000070 990000039 990000005 990000240 990000009 990000015 990000256 990000249 990000105 990000312 
990000095 990000092 990000056 990000207 990000167 990000263 990000202 990000244 990000024 990000082 990000196 990000136 990000120 990000256 990000243 
990000024 990000195 990000165 990000244 990000230 990000099 990000285 990000168 990000123 990000233 990000123 990000196 990000182 990000205 990000018 
990000106 990000155 990000065 990000236 990000226 990000020 990000290 990000002 990000193 990000128 990000004 990000193 990000268 990000019 990000125 
990000314 990000120 990000267 990000066 990000246 990000106 990000240 990000095 990000294 990000267 990000288 990000150 990000038 990000061 990000198 
990000115 990000265 990000200 990000170 990000085 990000194 990000173 990000270 990000126 990000079 990000100 990000113 990000070 990000313 990000013 
990000228 990000300 990000229 990000078 990000015 990000241 990000032 990000181 990000227 990000184 990000239 990000068 990000289 990000232 990000043 
990000182 990000159 990000282 990000060 990000054 990000130 990000065 990000053 990000308 990000130 990000300 990000045 990000261 990000164 990000268 
990000262 990000015 990000249 990000019 990000225 990000141 990000019 990000178 990000103 990000270 990000159 990000238 990000261 990000013 990000092 
990000183 990000232 990000081 990000234 990000086 990000081 990000094 990000243 990000142 990000052 990000205 990000306 990000246 990000256 990000127 
990000243 990000252 990000136 990000254 990000172 990000136 990000055 990000049 990000285 990000132 990000268 990000119 990000179 990000048 990000121 
990000260 990000260 990000279 990000131 990000016 990000133 990000104 990000238 990000095 990000145 990000132 990000057 990000103 990000195 990000077 
990000208 990000174 990000104 990000256 990000027 990000314 990000299 990000285 990000057 990000298 990000188 990000195 990000269 990000229 990000133 
990000196 990000057 990000267 990000069 990000268 990000006 990000169 990000261 990000170 990000053 990000188 990000228 990000299 990000183 990000017 
990000189 990000126 990000213 990000226 990000181 990000013 990000171 990000159 990000128 990000304 990000064 990000248 990000107 990000162 990000311 
990000232 990000128 990000269 990000114 990000043 990000247 990000126 990000143 990000110 990000178 990000145 990000013 990000155 990000248 990000167 
990000142 990000269 990000077 990000163 990000134 990000263 990000023 990000064 990000152 990000009 990000113 990000312 990000252 990000291 990000188 
990000247 990000034 990000140 990000060 990000287 990000021 990000153 990000042 990000136 990000184 990000157 990000080 990000177 990000217 990000006 
990000090 990000241 990000301 990000158 990000017 990000061 990000301 990000121 990000003 990000315 990000234 990000240 990000136 990000036 990000065 
990000088 990000018 990000101 990000123 990000266 990000029 990000226 990000004 990000311 990000182 990000264 990000039 990000048 990000171 990000238 
990000227 990000039 990000300 990000243 990000258 990000112 990000222 990000308 990000069 990000232 990000039 990000296 990000217 990000300 990000212 
990000014 990000111 990000053 990000116 990000087 990000024 990000000 990000162 990000105 990000132 990000174 990000075 990000029 990000234 990000033 
990000059 990000072 990000113 990000133 990000011 990000218 990000308 990000030 990000053 990000153 990000046 990000143 990000297 990000233 990000113 
990000121 990000164 990000156 990000250 990000311 990000196 990000079 990000046 990000119 990000221 990000266 990000262 990000067 990000157 990000115 
990000070 990000198 990000204 990000103 990000301 990000035 990000103 990000138 990000146 990000234 990000020 990000106 990000024 990000132 990000019 
990000168 990000094 990000307 990000110 990000116 990000294 990000082 990000125 990000040 990000197 990000239 990000161 990000128 990000312 990000020 
990000020 990000282 990000104 990000201 990000130 990000079 990000090 990000283 990000160 990000111 990000270 990000019 990000116 990000216 990000043 
990000066 990000190 990000143 990000260 990000046 990000128 990000176 990000223 990000230 990000010 990000241 990000217 990000197 990000150 990000143 
990000115 990000026 990000131 990000306 990000198 990000104 990000181 990000040 990000043 990000175 990000086 990000298 990000051 990000009 990000065 
990000104 990000126 990000157 990000031 990000011 990000251 990000118 990000244 990000250 990000061 990000243 990000133 990000036 990000111 990000251 
990000023 990000019 990000100 990000054 990000260 990000019 990000274 990000121 990000233 990000186 990000302 990000125 990000002 990000225 990000005 
990000131 990000280 990000068 990000007 990000069 990000212 990000313 990000195 990000007 990000240 990000092 990000140 990000161 990000012 990000144 
990000049 990000122 990000126 990000000 990000221 990000218 990000198 990000293 990000078 990000298 990000254 990000145 990000025 990000048 990000314 
990000029 990000311 990000223 990000279 990000037 990000009 990000162 990000315 990000107 990000056 990000305 990000258 990000104 990000077 990000024 
990000077 990000056 990000308 990000166 990000162 990000177 990000223 990000256 990000093 990000024 990000080 990000013 990000136 990000017 990000062 
990000103 990000031 990000118 990000307 990000120 990000303 990000076 990000108 990000124 990000170 990000219 990000066 990000008 990000268 990000149 
990000066 990000185 990000115 990000102 990000172 990000148 990000063 990000220 990000115 990000094 990000065 990000152 990000146 990000132 990000031 
990000006 990000088 990000280 990000205 990000196 990000200 990000078 990000080 990000207 990000232 990000295 990000310 990000255 990000057 990000308 
990000000 990000226 990000304 990000134 990000309 990000237 990000265 990000310 990000221 990000092 990000243 990000193 990000206 990000245 990000094 
990000213 990000067 990000192 990000294 990000138 990000176 990000295 990000157 990000240 990000195 990000275 990000121 990000262 990000296 990000197 
990000085 990000021 990000288 990000133 990000047 990000168 990000021 990000216 990000016 990000001 990000299 990000281 990000204 990000266 990000236 
990000139 990000126 990000306 990000304 990000039 990000118 990000076 990000008 990000168 990000276 990000252 990000074 990000105 990000091 990000175 
990000010 990000203 990000278 990000015 990000238 990000148 990000223 990000091 990000034 990000221 990000275 990000161 990000031 990000199 990000247 
990000139 990000215 990000154 990000064 990000265 990000242 990000019 990000178 990000020 990000009 990000153 990000272 990000089 990000226 990000211 
990000245 990000017 990000138 990000206 990000244 990000258 990000068 990000005 990000228 990000131 990000303 990000063 990000235 990000023 990000028 
990000241 990000026 990000257 990000143 990000226 990000270 990000276 990000213 990000000 990000296 990000100 990000276 990000103 990000005 990000039 
990000288 990000074 990000121 990000036 990000274 990000191 990000259 990000225 990000264 990000234 990000090 990000128 990000282 990000137 990000084 
990000013 990000210 990000033 990000230 990000313 990000164 990000315 990000034 990000201 990000257 990000271 990000174 990000250 990000087 990000202 
990000286 990000237 990000198 990000038 990000158 990000196 990000267 990000068 990000003 990000110 990000244 990000021 990000053 990000302 990000022 
990000073 990000011 990000012 990000260 990000282 990000036 990000217 990000273 990000152 990000146 990000062 990000114 990000006 990000266 990000089 
990000131 990000130 990000273 990000133 990000245 990000076 990000308 990000181 990000018 990000011 990000028 990000312 990000034 990000288 990000045 
990000169 990000166 990000090 990000062 990000180 990000264 990000056 990000022 990000187 990000128 990000051 990000291 990000241 990000024 990000258 
990000003 990000036 990000284 990000004 990000273 990000218 990000021 990000178 990000059 990000015 990000281 990000310 990000182 990000291 990000016 
990000069 990000282 990000073 990000172 990000067 990000098 990000014 990000085 990000111 990000262 990000253 990000160 990000123 990000222 990000128 
990000155 990000055 990000144 990000201 990000006 990000062 990000141 990000012 990000015 990000301 990000111 990000253 990000274 990000071 990000233 
990000251 990000088 990000127 990000304 990000067 990000163 990000022 990000283 990000312 990000067 990000114 990000146 990000124 990000289 990000064 
990000113 990000089 990000263 990000249 990000299 990000123 990000285 990000237 990000163 990000286 990000033 990000194 990000247 990000189 990000011 
990000192 990000024 990000044 990000248 990000201 990000288 990000137 990000238 990000218 990000281 990000299 990000045 990000003 990000039 990000157 
990000279 990000086 990000214 990000110 990000300 990000272 990000226 990000233 990000137 990000269 990000010 990000138 990000068 990000203 990000041 
990000282 990000145 990000295 990000177 990000026 990000298 990000013 990000140 990000284 990000103 990000023 990000225 990000063 990000069 990000089 
990000122 990000290 990000034 990000145 990000223 990000185 990000146 990000268 990000191 990000241 990000295 990000034 990000290 990000283 990000125 
990000169 990000236 990000192 990000293 990000150 990000307 990000297 990000213 990000269 990000085 990000260 990000293 990000000 990000277 990000221 
990000078 990000296 990000265 990000072 990000126 990000021 990000026 990000244 990000237 990000089 990000041 990000233 990000137 990000032 990000246 
990000157 990000082 990000153 990000180 990000255 990000233 990000062 990000234 990000217 990000152 990000063 990000279 990000009 990000147 990000251 
990000210 990000183 990000232 990000164 990000001 990000056 990000087 990000270 990000253 990000209 990000133 990000071 990000163 990000155 990000240 
990000260 990000004 990000079 990000000 990000241 990000073 990000107 990000003 990000308 990000094 990000250 990000213 990000041 990000074 990000055 
990000171 990000071 990000304 990000114 990000151 990000156 990000163 990000112 990000085 990000308 990000198 990000182 990000306 990000218 990000223 
990000078 990000260 990000212 990000179 990000195 990000307 990000130 990000155 990000200 990000201 990000262 990000123 990000160 990000306 990000313 
990000030 990000102 990000160 990000263 990000163 990000230 990000278 990000134 990000197 990000174 990000156 990000307 990000159 990000197 990000216 
990000014 990000259 990000029 990000309 990000005 990000286 990000140 990000156 990000212 990000117 990000042 990000076 990000038 990000081 990000247 
990000169 990000109 990000151 990000134 990000241 990000289 990000308 990000268 990000307 990000041 990000236 990000136 990000283 990000027 990000182 
990000120 990000003 990000291 990000117 990000314 990000179 990000211 990000295 990000150 990000121 990000248 990000097 990000288 990000165 990000222 
990000184 990000279 990000128 990000139 990000249 990000096 990000268 990000272 990000193 990000202 990000193 990000105 990000237 990000139 990000216 
990000236 990000213 990000105 990000127 990000057 990000276 990000115 990000119 990000242 990000109 990000076 990000139 990000168 990000282 990000260 
990000230 990000064 990000160 990000304 990000297 990000026 990000140 990000122 990000107 990000031 990000239 990000029 990000216 990000082 990000006 
990000296 990000262 990000206 990000166 990000078 990000220 990000148 990000283 990000002 990000299 990000051 990000064 990000156 990000238 990000253 
990000016 990000181 990000061 990000034 990000125 990000238 990000086 990000189 990000068 990000061 990000308 990000052 990000194 990000109 990000163 
990000291 990000288 990000153 990000277 990000285 990000195 990000033 990000226 990000052 990000236 990000242 990000064 990000144 990000195 990000285 
990000031 990000248 990000099 990000255 990000044 990000117 990000119 990000229 990000289 990000238 990000253 990000265 990000242 990000314 990000199 
990000091 990000216 990000134 990000028 990000275 990000257 990000088 990000173 990000096 990000037 990000053 990000089 990000134 990000118 990000182 
990000168 990000251 990000256 990000179 990000135 990000150 990000196 990000286 990000162 990000049 990000228 990000019 990000083 990000030 990000256 
990000228 990000032 990000053 990000230 990000150 990000040 990000111 990000114 990000193 990000077 990000221 990000273 990000283 990000036 990000104 
990000097 990000117 990000286 990000029 990000158 990000039 990000035 990000042 990000262 990000291 990000094 990000270 990000217 990000242 990000151 
990000228 990000296 990000064 990000126 990000112 990000289 990000219 990000009 990000223 990000132 990000295 990000293 990000098 990000270 990000118 
990000007 990000047 990000313 990000181 990000268 990000021 990000110 990000261 990000201 990000243 990000204 990000314 990000291 990000060 990000298 
990000197 990000031 990000039 990000105 990000229 990000285 990000228 990000025 990000157 990000272 990000088 990000259 990000134 990000047 990000021 
990000092 990000207 990000060 990000266 990000122 990000286 990000220 990000082 990000018 990000147 990000272 990000105 990000252 990000237 990000029 
990000127 990000221 990000298 990000312 990000075 990000270 990000046 990000189 990000134 990000017 990000139 990000123 990000047 990000147 990000042 
990000073 990000100 990000307 990000140 990000178 990000015 990000253 990000221 990000133 990000156 990000111 990000022 990000000 990000019 990000240 
990000018 990000028 990000043 990000204 990000223 990000302 990000165 990000085 990000157 990000275 990000100 990000043 990000031 990000307 990000094 
990000180 990000011 990000049 990000169 990000079 990000222 990000240 990000080 990000060 990000284 990000039 990000170 990000121 990000075 990000221 
990000015 990000173 990000103 990000028 990000188 990000057 990000162 990000273 990000027 990000229 990000165 990000241 990000251 990000262 990000096 
990000049 990000287 990000313 990000109 990000309 990000246 990000184 990000017 990000284 990000295 990000244 990000220 990000025 990000298 990000261 
990000284 990000219 990000304 990000228 990000229 990000269 990000162 990000166 990000166 990000093 990000146 990000221 990000249 990000120 990000139 
990000030 990000062 990000211 990000044 990000128 990000100 990000151 990000045 990000215 990000165 990000204 990000007 990000217 990000061 990000313 
990000219 990000261 990000014 990000293 990000214 990000155 990000221 990000059 990000141 990000025 990000138 990000310 990000110 990000203 990000267 
990000040 990000229 990000226 990000197 990000030 990000254 990000100 990000244 990000185 990000292 990000234 990000262 990000158 990000151 990000075 
990000179 990000094 990000213 990000306 990000121 990000089 990000025 990000028 990000001 990000234 990000077 990000128 990000244 990000164 990000195 
990000262 990000106 990000045 990000087 990000112 990000037 990000115 990000054 990000297 990000181 990000049 990000081 990000222 990000264 990000277 
990000209 990000106 990000139 990000255 990000039 990000264 990000222 990000298 990000133 990000145 990000123 990000094 990000130 990000121 990000166 
990000167 990000181 990000049 990000193 990000220 990000014 990000247 990000069 990000012 990000142 990000247 990000003 990000065 990000282 990000003 
990000031 990000044 990000068 990000034 990000267 990000158 990000243 990000200 990000003 990000048 990000086 990000247 990000169 990000247 990000304 
990000266 990000122 990000051 990000096 990000070 990000230 990000091 990000078 990000035 990000067 990000174 990000187 990000222 990000106 990000015 
990000261 990000233 990000031 990000165 990000303 990000164 990000008 990000202 990000176 990000104 990000273 990000115 990000023 990000003 990000133 
990000141 990000279 990000185 990000290 990000000 990000180 990000080 990000064 990000103 990000107 990000296 990000250 990000302 990000294 990000074 
990000170 990000125 990000192 990000272 990000296 990000218 990000076 990000198 990000186 990000051 990000137 990000097 990000053 990000279 990000070 
990000251 990000033 990000224 990000287 990000045 990000188 990000295 990000225 990000206 990000235 990000300 990000098 990000145 990000306 990000198 
990000113 990000211 990000175 990000169 990000309 990000088 990000274 990000225 990000221 990000085 990000005 990000048 990000068 990000040 990000289 
990000191 990000254 990000013 990000090 990000052 990000288 990000285 990000211 990000302 990000000 990000114 990000134 990000143 990000089 990000012 
990000131 990000091 990000082 990000253 990000281 990000085 990000094 990000125 990000021 990000113 990000052 990000193 990000253 990000239 990000276 
990000103 990000226 990000297 990000123 990000191 990000109 990000241 990000094 990000267 990000058 990000010 990000195 990000175 990000307 990000014 
990000053 990000268 990000128 990000282 990000195 990000044 990000247 990000138 990000185 990000107 990000269 990000285 990000304 990000206 990000259 
990000115 990000145 990000107 990000049 990000052 990000197 990000030 990000012 990000083 990000081 990000121 990000087 990000307 990000115 990000292 
990000017 990000026 990000058 990000297 990000099 990000045 990000113 990000296 990000067 990000085 990000004 990000274 990000018 990000079 990000220 
990000176 990000005 990000035 990000202 990000056 990000116 990000108 990000208 990000279 990000137 990000261 990000077 990000129 990000064 990000245 
990000292 990000059 990000151 990000223 990000169 990000022 990000203 990000125 990000081 990000228 990000068 990000276 990000081 990000298 990000056 
990000249 990000302 990000272 990000188 990000165 990000037 990000251 990000060 990000233 990000072 990000264 990000190 990000269 990000234 990000157 
990000099 990000092 990000122 990000286 990000159 990000261 990000076 990000169 990000164 990000303 990000049 990000022 990000314 990000029 990000182 
990000227 990000099 990000213 990000148 990000236 990000032 990000160 990000081 990000102 990000050 990000011 990000301 990000291 990000253 990000142 
990000116 990000059 990000074 990000308 990000201 990000163 990000276 990000117 990000184 990000241 990000014 990000125 990000214 990000017 990000085 
990000278 990000145 990000193 990000163 990000045 990000276 990000177 990000073 990000028 990000286 990000002 990000080 990000038 990000078 990000194 
990000056 990000136 990000075 990000153 990000027 990000261 990000053 990000101 990000269 990000257 990000121 990000290 990000176 990000156 990000081 
990000041 990000157 990000209 990000244 990000184 990000052 990000279 990000093 990000139 990000256 990000016 990000095 990000200 990000235 990000225 
990000133 990000010 990000208 990000143 990000087 990000301 990000212 990000195 990000154 990000235 990000056 990000274 990000000 990000104 990000008 
990000169 990000128 990000154 990000142 990000008 990000145 990000212 990000127 990000018 990000226 990000222 990000259 990000186 990000286 990000122 
990000055 990000038 990000037 990000144 990000138 990000063 990000192 990000141 990000043 990000122 990000053 990000283 990000044 990000100 990000007 
990000298 990000049 990000026 990000056 990000056 990000240 990000013 990000250 990000173 990000210 990000097 990000229 990000058 990000187 990000001 
990000134 990000065 990000069 990000188 990000314 990000314 990000228 990000032 990000050 990000179 990000087 990000198 990000112 990000008 990000092 
990000079 990000295 990000030 990000307 990000288 990000050 990000155 990000055 990000118 990000057 990000271 990000270 990000146 990000093 990000311 
990000256 990000284 990000143 990000197 990000215 990000235 990000288 990000150 990000232 990000058 990000117 990000205 990000243 990000167 990000020 
990000085 990000306 990000000 990000048 990000043 990000306 990000144 990000012 990000295 990000307 990000165 990000028 990000218 990000251 990000259 
990000269 990000062 990000178 990000201 990000212 990000095 990000062 990000191 990000247 990000230 990000296 990000085 990000125 990000081 990000101 
990000070 990000181 990000308 990000225 990000001 990000007 990000065 990000233 990000044 990000084 990000228 990000160 990000276 990000093 990000154 
990000193 990000114 990000215 990000157 990000009 990000155 990000079 990000157 990000027 990000220 990000287 990000015 990000022 990000209 990000078 
990000189 990000151 990000265 990000023 990000304 990000124 990000135 990000226 990000047 990000158 990000277 990000028 990000174 990000286 990000277 
990000246 990000115 990000224 990000270 990000273 990000265 990000262 990000242 990000043 990000036 990000108 990000225 990000108 990000038 990000128 
990000278 990000296 990000155 990000055 990000141 990000026 990000004 990000265 990000038 990000290 990000191 990000132 990000152 990000065 990000008 
990000109 990000046 990000297 990000173 990000160 990000102 990000081 990000054 990000003 990000029 990000224 990000232 990000310 990000152 990000233 
990000217 990000287 990000212 990000203 990000129 990000215 990000030 990000210 990000230 990000123 990000126 990000107 990000212 990000115 990000103 
990000036 990000240 990000221 990000244 990000208 990000180 990000169 990000136 990000246 990000096 990000237 990000046 990000289 990000306 990000190 
990000160 990000296 990000262 990000004 990000199 990000235 990000077 990000245 990000204 990000255 990000253 990000213 990000056 990000270 990000306 
990000007 990000271 990000279 990000061 990000002 990000020 990000165 990000128 990000119 990000062 990000207 990000027 990000124 990000120 990000136 
990000300 990000310 990000033 990000148 990000315 990000209 990000215 990000172 990000293 990000155 990000307 990000149 990000220 990000177 990000110 
990000277 990000021 990000135 990000109 990000059 990000011 990000051 990000016 990000286 990000177 990000030 990000178 990000186 990000243 990000128 
990000198 990000112 990000111 990000187 990000123 990000149 990000041 990000080 990000304 990000222 990000159 990000111 990000131 990000257 990000009 
990000194 990000309 990000233 990000108 990000201 990000163 990000225 990000138 990000138 990000130 990000165 990000311 990000262 990000307 990000090 
990000117 990000306 990000134 990000201 990000120 990000174 990000262 990000199 990000077 990000127 990000162 990000169 990000050 990000268 990000232 
990000309 990000103 990000059 990000145 990000154 990000117 990000100 990000274 990000211 990000130 990000290 990000100 990000076 990000058 990000199 
990000140 990000222 990000091 990000024 990000035 990000170 990000165 990000277 990000273 990000182 990000181 990000172 990000117 990000073 990000241 
990000253 990000150 990000074 990000149 990000034 990000275 990000037 990000075 990000180 990000151 990000223 990000003 990000067 990000096 990000165 
990000042 990000273 990000011 990000300 990000282 990000075 990000149 990000289 990000211 990000117 990000062 990000270 990000135 990000229 990000009 
990000314 990000246 990000232 990000257 990000192 990000173 990000106 990000217 990000016 990000210 990000309 990000064 990000011 990000009 990000009 
990000128 990000102 990000247 990000244 990000246 990000070 990000114 990000119 990000043 990000137 990000134 990000034 990000152 990000118 990000309 
990000096 990000210 990000252 990000075 990000059 990000257 990000287 990000178 990000275 990000052 990000248 990000193 990000258 990000010 990000272 
990000076 990000256 990000050 990000253 990000221 990000168 990000147 990000262 990000147 990000148 990000079 990000126 990000231 990000217 990000027 
990000084 990000080 990000099 990000264 990000179 990000054 990000124 990000107 990000119 990000275 990000220 990000268 990000209 990000114 990000041 
990000258 990000295 990000024 990000132 990000112 990000308 990000084 990000141 990000308 990000095 990000273 990000238 990000188 990000143 990000056 
990000264 990000127 990000111 990000197 990000283 990000019 990000171 990000237 990000029 990000121 990000152 990000202 990000227 990000017 990000280 
990000232 990000257 990000166 990000266 990000012 990000021 990000240 990000033 990000020 990000279 990000031 990000044 990000249 990000198 990000181 
990000018 990000210 990000000 990000060 990000131 990000002 990000209 990000039 990000280 990000158 990000172 990000228 990000022 990000285 990000079 
990000308 990000127 990000143 990000070 990000251 990000258 990000226 990000275 990000084 990000238 990000297 990000211 990000003 990000131 990000205 
990000258 990000244 990000278 990000289 990000250 990000221 990000248 990000173 990000307 990000276 990000278 990000123 990000111 990000056 990000258 
990000094 990000207 990000255 990000267 990000254 990000256 990000158 990000212 990000025 990000294 990000154 990000125 990000163 990000035 990000247 
990000226 990000178 990000003 990000284 990000043 990000206 990000220 990000004 990000210 990000168 990000223 990000002 990000041 990000302 990000304 
990000153 990000162 990000092 990000057 990000275 990000092 990000179 990000055 990000153 990000222 990000093 990000058 990000024 990000244 990000242 
990000288 990000161 990000271 990000168 990000277 990000265 990000044 990000003 990000287 990000188 990000277 990000024 990000079 990000153 990000277 
990000289 990000146 990000075 990000059 990000118 990000284 990000228 990000227 990000209 990000038 990000261 990000261 990000274 990000287 990000099 
990000197 990000014 990000178 990000211 990000297 990000055 990000204 990000250 990000219 990000233 990000200 990000189 990000237 990000094 990000229 
990000249 990000178 990000234 990000160 990000026 990000177 990000002 990000303 990000170 990000250 990000168 990000127 990000247 990000226 990000224 
990000097 990000204 990000090 990000251 990000245 990000211 990000079 990000179 990000089 990000061 990000207 990000309 990000157 990000243 990000141 
990000212 990000131 990000206 990000280 990000191 990000056 990000314 990000240 990000083 990000256 990000086 990000114 990000044 990000185 990000029 
990000107 990000283 990000300 990000257 990000021 990000265 990000061 990000036 990000171 990000224 990000242 990000149 990000012 990000245 990000195 
990000270 990000087 990000216 990000154 990000059 990000211 990000062 990000092 990000147 990000272 990000088 990000102 990000094 990000039 990000116 
990000264 990000004 990000234 990000255 990000123 990000200 990000088 990000144 990000262 990000069 990000256 990000243 990000300 990000133 990000065 
990000070 990000271 990000305 990000138 990000296 990000015 990000294 990000271 990000129 990000306 990000213 990000297 990000003 990000032 990000315 
990000290 990000246 990000244 990000177 990000117 990000016 990000092 990000159 990000197 990000120 990000076 990000052 990000077 990000194 990000119 
990000011 990000132 990000068 990000127 990000210 990000006 990000201 990000280 990000210 990000104 990000166 990000288 990000304 990000267 990000099 
990000040 990000113 990000241 990000305 990000048 990000234 990000201 990000014 990000102 990000216 990000110 990000314 990000063 990000087 990000148 
990000002 990000287 990000022 990000260 990000272 990000136 990000240 990000203 990000048 990000071 990000235 990000278 990000135 990000120 990000025 
990000295 990000203 990000229 990000169 990000101 990000053 990000074 990000064 990000079 990000220 990000157 990000181 990000269 990000160 990000051 
990000004 990000107 990000227 990000044 990000030 990000229 990000208 990000102 990000147 990000013 990000219 990000026 990000201 990000061 990000250 
990000028 990000270 990000239 990000153 990000282 990000081 990000298 990000009 990000121 990000004 990000277 990000084 990000149 990000204 990000076 
990000019 990000008 990000314 990000256 990000225 990000251 990000022 990000038 990000057 990000050 990000135 990000028 990000152 990000175 990000156 
990000245 990000057 990000290 990000004 990000100 990000056 990000313 990000154 990000061 990000223 990000285 990000124 990000244 990000053 990000310 
990000251 990000252 990000091 990000286 990000112 990000126 990000024 990000290 990000104 990000081 990000219 990000042 990000240 990000164 990000041 
990000204 990000136 990000242 990000058 990000309 990000163 990000074 990000115 990000197 990000208 990000256 990000258 990000290 990000181 990000065 
990000171 990000240 990000048 990000278 990000036 990000017 990000048 990000076 990000176 990000014 990000291 990000261 990000231 990000027 990000049 
990000176 990000071 990000142 990000173 990000020 990000079 990000128 990000007 990000237 990000036 990000081 990000299 990000116 990000170 990000107 
990000192 990000170 990000202 990000195 990000105 990000128 990000258 990000201 990000128 990000060 990000130 990000151 990000006 990000242 990000195 
990000090 990000228 990000270 990000087 990000062 990000127 990000195 990000018 990000005 990000240 990000201 990000186 990000183 990000192 990000249 
990000111 990000282 990000255 990000137 990000310 990000151 990000292 990000240 990000065 990000214 990000246 990000137 990000148 990000065 990000011 
990000079 990000184 990000029 990000148 990000189 990000167 990000202 990000002 990000015 990000250 990000138 990000230 990000046 990000004 990000146 
990000033 990000208 990000228 990000110 990000043 990000064 990000255 990000304 990000227 990000100 990000025 990000188 990000288 990000178 990000211 
990000009 990000137 990000206 990000287 990000005 990000017 990000145 990000213 990000060 990000310 990000144 990000254 990000193 990000181 990000088 
990000296 990000149 990000111 990000251 990000223 990000131 990000181 990000044 990000213 990000114 990000003 990000270 990000150 990000131 990000000 
990000305 990000051 990000269 990000056 990000122 990000074 990000079 990000283 990000014 990000163 990000226 990000255 990000194 990000164 990000072 
990000061 990000199 990000305 990000102 990000290 990000031 990000279 990000073 990000031 990000014 990000124 990000021 990000149 990000112 990000008 
990000027 990000173 990000040 990000208 990000286 990000271 990000250 990000298 990000001 990000082 990000268 990000090 990000278 990000229 990000173 
990000302 990000021 990000290 990000112 990000270 990000308 990000022 990000100 990000164 990000291 990000154 990000248 990000224 990000241 990000019 
990000072 990000279 990000205 990000074 990000049 990000242 990000068 990000304 990000020 990000135 990000268 990000146 990000211 990000223 990000178 
990000296 990000089 990000190 990000206 990000156 990000117 990000193 990000175 990000224 990000050 990000001 990000291 990000111 990000131 990000184 
990000214 990000247 990000004 990000051 990000255 990000097 990000111 990000182 990000119 990000018 990000163 990000230 990000061 990000274 990000154 
990000008 990000047 990000208 990000082 990000006 990000305 990000031 990000195 990000297 990000162 990000122 990000058 990000264 990000280 990000040 
990000040 990000066 990000036 990000219 990000082 990000264 990000298 990000272 990000093 990000178 990000115 990000284 990000175 990000201 990000042 
990000196 990000191 990000263 990000198 990000221 990000080 990000224 990000061 990000272 990000146 990000157 990000143 990000301 990000246 990000276 
990000294 990000278 990000213 990000145 990000242 990000093 990000232 990000102 990000142 990000293 990000177 990000031 990000165 990000140 990000059 
990000149 990000064 990000239 990000009 990000146 990000061 990000243 990000003 990000194 990000185 990000045 990000302 990000015 990000197 990000145 
990000267 990000277 990000081 990000054 990000176 990000229 990000142 990000303 990000068 990000033 990000223 990000171 990000026 990000309 990000195 
990000233 990000245 990000027 990000199 990000243 990000032 990000222 990000242 990000254 990000059 990000078 990000135 990000243 990000275 990000229 
990000295 990000079 990000185 990000083 990000052 990000086 990000095 990000226 990000047 990000263 990000232 990000033 990000313 990000081 990000031 
990000040 990000198 990000298 990000176 990000157 990000184 990000268 990000156 990000084 990000183 990000198 990000172 990000090 990000061 990000198 
990000057 990000249 990000051 990000253 990000209 990000293 990000021 990000268 990000131 990000164 990000057 990000311 990000266 990000270 990000032 
990000053 990000102 990000032 990000158 990000293 990000192 990000060 990000129 990000290 990000141 990000214 990000246 990000263 990000118 990000144 
990000101 990000110 990000068 990000182 990000216 990000256 990000141 990000301 990000003 990000046 990000169 990000115 990000220 990000097 990000092 
990000164 990000312 990000229 990000281 990000241 990000031 990000097 990000280 990000096 990000011 990000160 990000043 990000162 990000081 990000053 
990000105 990000050 990000129 990000043 990000233 990000039 990000097 990000004 990000098 990000314 990000010 990000133 990000007 990000107 990000100 
990000119 990000196 990000067 990000057 990000067 990000234 990000132 990000094 990000146 990000194 990000134 990000023 990000012 990000198 990000046 
990000137 990000176 990000149 990000086 990000303 990000289 990000018 990000146 990000292 990000061 990000208 990000224 990000306 990000102 990000150 
990000224 990000177 990000023 990000300 990000055 990000091 990000018 990000184 990000247 990000093 990000187 990000237 990000096 990000187 990000185 
990000117 990000239 990000183 990000048 990000194 990000062 990000089 990000072 990000004 990000014 990000200 990000116 990000084 990000074 990000270 
990000307 990000003 990000146 990000035 990000163 990000114 990000132 990000250 990000097 990000038 990000159 990000121 990000158 990000229 990000147 
990000260 990000039 990000146 990000066 990000305 990000245 990000312 990000144 990000181 990000224 990000291 990000194 990000260 990000291 990000272 
990000214 990000300 990000273 990000092 990000020 990000106 990000292 990000160 990000002 990000030 990000122 990000126 990000084 990000270 990000070 
990000133 990000087 990000263 990000118 990000040 990000141 990000245 990000155 990000271 990000058 990000102 990000061 990000039 990000264 990000042 
990000179 990000173 990000167 990000179 990000201 990000062 990000292 990000246 990000083 990000048 990000053 990000179 990000063 990000058 990000186 
990000292 990000034 990000103 990000293 990000010 990000278 990000247 990000102 990000049 990000282 990000219 990000166 990000211 990000195 990000288 
990000159 990000153 990000288 990000051 990000165 990000171 990000005 990000114 990000201 990000027 990000314 990000156 990000021 990000049 990000242 
990000244 990000057 990000031 990000224 990000066 990000003 990000134 990000106 990000091 990000219 990000067 990000074 990000072 990000294 990000234 
990000187 990000086 990000226 990000188 990000206 990000167 990000152 990000028 990000306 990000022 990000099 990000165 990000103 990000118 990000214 
990000280 990000173 990000275 990000230 990000004 990000075 990000278 990000006 990000135 990000236 990000124 990000245 990000085 990000198 990000178 
990000036 990000185 990000291 990000309 990000191 990000157 990000302 990000303 990000091 990000242 990000205 990000088 990000282 990000072 990000224 
990000272 990000112 990000100 990000142 990000002 990000215 990000065 990000035 990000178 990000119 990000222 990000179 990000138 990000069 990000008 
990000148 990000309 990000123 990000190 990000020 990000221 990000033 990000255 990000078 990000156 990000060 990000244 990000192 990000214 990000298 
990000256 990000235 990000212 990000231 990000213 990000300 990000311 990000297 990000019 990000267 990000184 990000288 990000293 990000183 990000008 
990000169 990000117 990000263 990000269 990000018 990000191 990000062 990000023 990000235 990000277 990000299 990000042 990000170 990000096 990000216 
990000273 990000039 990000292 990000158 990000304 990000091 990000203 990000018 990000265 990000140 990000002 990000153 990000171 990000266 990000149 
990000144 990000168 990000067 990000182 990000263 990000126 990000295 990000214 990000209 990000021 990000071 990000025 990000249 990000262 990000277 
990000009 990000230 990000214 990000285 990000270 990000307 990000018 990000020 990000175 990000274 990000043 990000228 990000082 990000184 990000155 
990000269 990000111 990000182 990000053 990000185 990000129 990000100 990000156 990000176 990000213 990000189 990000124 990000088 990000198 990000028 
990000194 990000288 990000063 990000204 990000283 990000128 990000281 990000224 990000176 990000034 990000099 990000062 990000003 990000073 990000144 
990000067 990000191 990000014 990000013 990000256 990000187 990000312 990000200 990000198 990000187 990000019 990000046 990000030 990000172 990000093 
990000227 990000057 990000111 990000269 990000030 990000171 990000021 990000004 990000049 990000299 990000212 990000101 990000064 990000056 990000031 
990000075 990000294 990000156 990000253 990000183 990000128 990000060 990000010 990000217 990000197 990000281 990000071 990000226 990000240 990000308 
990000113 990000216 990000282 990000162 990000077 990000003 990000289 990000260 990000153 990000284 990000306 990000054 990000008 990000313 990000146 
990000267 990000193 990000303 990000133 990000154 990000212 990000049 990000301 990000093 990000214 990000110 990000194 990000157 990000068 990000311 
990000294 990000063 990000003 990000152 990000202 990000116 990000033 990000254 990000202 990000205 990000301 990000270 990000064 990000147 990000162 
990000018 990000153 990000218 990000208 990000247 990000133 990000093 990000220 990000028 990000166 990000215 990000111 990000305 990000060 990000082 
990000266 990000084 990000218 990000283 990000274 990000148 990000171 990000255 990000089 990000225 990000300 990000175 990000091 990000177 990000275 
990000216 990000008 990000036 990000137 990000123 990000011 990000060 990000174 990000176 990000168 990000121 990000060 990000126 990000225 990000020 
990000180 990000072 990000289 990000107 990000098 990000284 990000138 990000278 990000236 990000220 990000182 990000006 990000063 990000287 990000293 
990000217 990000167 990000287 990000092 990000091 990000186 990000032 990000260 990000094 990000176 990000285 990000006 990000166 990000292 990000102 
990000283 990000092 990000028 990000095 990000033 990000186 990000100 990000202 990000124 990000136 990000223 990000105 990000300 990000036 990000099 
990000243 990000264 990000254 990000148 990000034 990000216 990000259 990000220 990000207 990000230 990000221 990000016 990000247 990000185 990000092 
990000264 990000262 990000027 990000158 990000182 990000199 990000026 990000183 990000018 990000006 990000166 990000212 990000291 990000167 990000184 
990000135 990000051 990000040 990000025 990000004 990000258 990000234 990000086 990000236 990000111 990000103 990000072 990000049 990000168 990000305 
990000065 990000308 990000201 990000152 990000076 990000080 990000100 990000012 990000304 990000224 990000102 990000190 990000109 990000117 990000079 
990000134 990000116 990000283 990000097 990000231 990000010 990000115 990000217 990000300 990000140 990000270 990000183 990000159 990000048 990000046 
990000097 990000109 990000289 990000304 990000103 990000071 990000242 990000032 990000048 990000306 990000231 990000275 990000142 990000255 990000173 
990000250 990000093 990000034 990000177 990000119 990000204 990000306 990000028 990000007 990000101 990000146 990000020 990000045 990000192 990000281 
990000312 990000261 990000259 990000022 990000291 990000201 990000199 990000231 990000241 990000008 990000248 990000061 990000239 990000030 990000268 
990000269 990000242 990000129 990000020 990000292 990000303 990000089 990000124 990000150 990000196 990000012 990000110 990000014 990000296 990000121 
990000010 990000023 990000290 990000020 990000246 990000244 990000230 990000235 990000143 990000156 990000033 990000113 990000298 990000085 990000176 
990000303 990000287 990000152 990000284 990000213 990000007 990000194 990000163 990000192 990000301 990000260 990000292 990000222 990000236 990000142 
990000202 990000003 990000089 990000211 990000237 990000256 990000174 990000258 990000254 990000199 990000176 990000006 990000014 990000152 990000060 
990000046 990000250 990000024 990000134 990000008 990000199 990000177 990000020 990000177 990000243 990000284 990000314 990000082 990000045 990000108 
990000295 990000012 990000120 990000213 990000201 990000059 990000028 990000269 990000228 990000026 990000130 990000287 990000131 990000164 990000300 
990000243 990000047 990000076 990000077 990000167 990000175 990000057 990000211 990000095 990000034 990000145 990000192 990000044 990000105 990000093 
990000220 990000092 990000022 990000014 990000132 990000068 990000030 990000017 990000285 990000275 990000290 990000195 990000124 990000244 990000282 
990000040 990000182 990000296 990000040 990000231 990000057 990000086 990000048 990000231 990000225 990000270 990000004 990000054 990000306 990000090 
990000121 990000282 990000235 990000245 990000063 990000270 990000080 990000064 990000032 990000068 990000078 990000138 990000057 990000072 990000143 
990000295 990000090 990000289 990000242 990000141 990000057 990000103 990000058 990000267 990000035 990000002 990000127 990000293 990000176 990000257 
990000046 990000245 990000166 990000091 990000272 990000179 990000065 990000066 990000002 990000189 990000279 990000059 990000173 990000207 990000145 
990000055 990000003 990000286 990000084 990000111 990000059 990000059 990000116 990000048 990000236 990000045 990000138 990000002 990000058 990000202 
990000237 990000112 990000198 990000109 990000104 990000213 990000041 990000030 990000076 990000012 990000268 990000179 990000180 990000168 990000153 
990000292 990000278 990000283 990000119 990000258 990000202 990000182 990000013 990000147 990000051 990000018 990000019 990000239 990000239 990000227 
990000030 990000256 990000094 990000216 990000139 990000206 990000186 990000029 990000119 990000306 990000176 990000070 990000264 990000274 990000081 
990000197 990000249 990000186 990000077 990000068 990000145 990000171 990000069 990000110 990000028 990000143 990000308 990000225 990000047 990000187 
990000248 990000282 990000067 990000202 990000149 990000077 990000277 990000155 990000134 990000089 990000215 990000179 990000065 990000006 990000060 
990000130 990000059 990000240 990000059 990000077 990000112 990000077 990000244 990000174 990000074 990000219 990000216 990000097 990000141 990000173 
990000136 990000055 990000287 990000289 990000169 990000130 990000037 990000104 990000145 990000146 990000307 990000162 990000271 990000181 990000023 
990000206 990000002 990000039 990000282 990000288 990000170 990000149 990000288 990000232 990000244 990000289 990000151 990000112 990000245 990000007 
990000227 990000074 990000178 990000301 990000247 990000133 990000012 990000159 990000253 990000307 990000285 990000298 990000253 990000173 990000284 
990000160 990000058 990000071 990000096 990000157 990000290 990000060 990000089 990000218 990000013 990000144 990000164 990000241 990000293 990000091 
990000282 990000182 990000315 990000140 990000245 990000255 990000299 990000042 990000100 990000252 990000127 990000051 990000246 990000247 990000208 
990000012 990000219 990000020 990000062 990000218 990000272 990000056 990000171 990000066 990000090 990000240 990000135 990000296 990000190 990000186 
990000216 990000183 990000021 990000163 990000287 990000067 990000049 990000139 990000157 990000012 990000305 990000091 990000018 990000088 990000312 
990000204 990000015 990000024 990000210 990000048 990000071 990000285 990000064 990000172 990000105 990000180 990000263 990000000 990000010 990000282 
990000001 990000125 990000033 990000032 990000149 990000100 990000205 990000310 990000270 990000199 990000255 990000023 990000096 990000291 990000001 
990000238 990000267 990000247 990000184 990000002 990000307 990000118 990000157 990000134 990000170 990000109 990000168 990000272 990000114 990000108 
990000047 990000053 990000176 990000152 990000258 990000146 990000310 990000163 990000075 990000019 990000044 990000269 990000095 990000187 990000171 
990000107 990000186 990000026 990000020 990000203 990000082 990000148 990000004 990000173 990000268 990000243 990000252 990000075 990000076 990000112 
990000250 990000205 990000112 990000137 990000113 990000288 990000100 990000037 990000252 990000098 990000243 990000169 990000311 990000259 990000023 
990000204 990000115 990000193 990000204 990000290 990000241 990000296 990000305 990000303 990000134 990000297 990000104 990000078 990000016 990000074 
990000309 990000270 990000010 990000255 990000246 990000217 990000291 990000290 990000108 990000196 990000275 990000090 990000063 990000260 990000275 
990000023 990000269 990000238 990000248 990000295 990000187 990000151 990000315 990000070 990000061 990000140 990000054 990000234 990000173 990000097 
990000272 990000034 990000243 990000161 990000092 990000130 990000029 990000295 990000054 990000188 990000232 990000209 990000095 990000248 990000228 
990000264 990000020 990000215 990000295 990000237 990000018 990000219 990000238 990000157 990000118 990000100 990000226 990000269 990000298 990000184 
990000123 990000078 990000046 990000051 990000182 990000304 990000259 990000098 990000125 990000230 990000005 990000235 990000025 990000315 990000208 
990000274 990000139 990000009 990000138 990000193 990000019 990000241 990000097 990000296 990000227 990000204 990000147 990000236 990000151 990000067 
990000023 990000255 990000181 990000059 990000256 990000209 990000162 990000173 990000158 990000179 990000295 990000005 990000054 990000315 990000124 
990000114 990000197 990000106 990000314 990000115 990000241 990000011 990000064 990000307 990000285 990000121 990000245 990000305 990000012 990000289 
990000122 990000211 990000310 990000259 990000189 990000106 990000196 990000000 990000315 990000150 990000315 990000194 990000181 990000110 990000248 
990000049 990000123 990000146 990000008 990000050 990000271 990000078 990000173 990000115 990000033 990000269 990000066 990000292 990000119 990000086 
990000266 990000035 990000078 990000099 990000089 990000204 990000082 990000197 990000188 990000216 990000193 990000249 990000164 990000173 990000196 
990000172 990000171 990000119 990000247 990000059 990000020 990000103 990000196 990000090 990000038 990000219 990000040 990000236 990000257 990000048 
990000243 990000156 990000201 990000153 990000099 990000212 990000129 990000250 990000280 990000066 990000218 990000125 990000288 990000233 990000183 
990000037 990000156 990000199 990000054 990000010 990000129 990000232 990000001 990000130 990000071 990000143 990000112 990000197 990000031 990000188 
990000172 990000196 990000224 990000275 990000050 990000277 990000181 990000259 990000267 990000056 990000083 990000023 990000084 990000047 990000216 
990000173 990000019 990000058 990000313 990000046 990000115 990000310 990000187 990000275 990000019 990000073 990000078 990000201 990000055 990000307 
990000036 990000229 990000068 990000018 990000173 990000028 990000215 990000226 990000275 990000066 990000185 990000236 990000055 990000257 990000140 
990000006 990000105 990000211 990000067 990000028 990000131 990000107 990000233 990000212 990000158 990000107 990000110 990000118 990000138 990000040 
990000015 990000199 990000001 990000311 990000041 990000265 990000080 990000253 990000301 990000064 990000215 990000270 990000205 990000269 990000308 
990000297 990000016 990000074 990000200 990000301 990000125 990000139 990000039 990000137 990000256 990000110 990000194 990000136 990000162 990000215 
990000268 990000072 990000072 990000203 990000028 990000106 990000115 990000172 990000044 990000163 990000260 990000043 990000088 990000128 990000125 
990000063 990000182 990000161 990000210 990000039 990000175 990000025 990000019 990000140 990000243 990000223 990000207 990000109 990000176 990000234 
990000139 990000097 990000246 990000249 990000210 990000173 990000311 990000174 990000310 990000153 990000276 990000018 990000209 990000094 990000234 
990000014 990000058 990000314 990000217 990000303 990000144 990000069 990000223 990000190 990000111 990000281 990000160 990000123 990000248 990000246 
990000282 990000017 990000028 990000177 990000154 990000279 990000005 990000088 990000104 990000183 990000130 990000311 990000242 990000262 990000066 
990000267 990000117 990000277 990000061 990000090 990000061 990000133 990000248 990000144 990000092 990000091 990000084 990000195 990000074 990000200 
990000158 990000179 990000297 990000212 990000239 990000093 990000158 990000058 990000225 990000135 990000170 990000033 990000147 990000121 990000025 
990000296 990000128 990000041 990000004 990000178 990000008 990000015 990000054 990000205 990000008 990000136 990000006 990000134 990000117 990000226 
990000053 990000146 990000201 990000189 990000198 990000061 990000291 990000271 990000184 990000090 990000014 990000148 990000084 990000160 990000137 
990000289 990000136 990000190 990000235 990000036 990000165 990000267 990000136 990000301 990000164 990000285 990000310 990000225 990000009 990000041 
990000200 990000146 990000298 990000216 990000180 990000040 990000307 990000055 990000108 990000029 990000286 990000295 990000272 990000177 990000192 
990000024 990000073 990000214 990000189 990000085 990000208 990000295 990000243 990000057 990000202 990000164 990000099 990000151 990000096 990000071 
990000013 990000166 990000148 990000207 990000047 990000172 990000257 990000053 990000073 990000294 990000230 990000188 990000313 990000073 990000219 
990000276 990000152 990000014 990000205 990000139 990000143 990000121 990000137 990000164 990000286 990000161 990000128 990000100 990000267 990000073 
990000016 990000110 990000262 990000111 990000080 990000165 990000049 990000061 990000159 990000270 990000297 990000274 990000001 990000009 990000222 
990000080 990000279 990000151 990000266 990000212 990000178 990000226 990000281 990000186 990000015 990000150 990000170 990000101 990000016 990000184 
990000195 990000213 990000064 990000314 990000232 990000062 990000166 990000313 990000308 990000162 990000014 990000020 990000233 990000159 990000217 
990000258 990000155 990000292 990000140 990000016 990000208 990000295 990000016 990000030 990000249 990000193 990000034 990000097 990000122 990000034 
990000148 990000242 990000237 990000217 990000306 990000243 990000307 990000198 990000056 990000165 990000244 990000273 990000193 990000060 990000270 
990000204 990000113 990000129 990000254 990000037 990000058 990000149 990000056 990000047 990000067 990000306 990000222 990000104 990000107 990000193 
990000024 990000121 990000033 990000205 990000028 990000127 990000112 990000045 990000211 990000118 990000264 990000314 990000025 990000309 990000218 
990000212 990000205 990000043 990000083 990000028 990000293 990000195 990000189 990000244 990000125 990000296 990000199 990000196 990000111 990000156 
990000132 990000049 990000251 990000076 990000072 990000093 990000304 990000197 990000208 990000152 990000184 990000288 990000297 990000172 990000168 
990000286 990000156 990000097 990000256 990000263 990000170 990000156 990000258 990000062 990000085 990000291 990000194 990000086 990000148 990000086 
990000206 990000013 990000286 990000263 990000307 990000116 990000059 990000158 990000097 990000208 990000256 990000108 990000178 990000030 990000050 
990000223 990000287 990000011 990000195 990000283 990000040 990000312 990000258 990000166 990000127 990000146 990000210 990000232 990000169 990000149 
990000006 990000150 990000142 990000255 990000313 990000294 990000132 990000294 990000087 990000060 990000183 990000041 990000090 990000229 990000069 
990000270 990000121 990000171 990000075 990000046 990000174 990000103 990000005 990000270 990000227 990000172 990000261 990000067 990000272 990000073 
990000272 990000269 990000262 990000199 990000151 990000039 990000010 990000014 990000201 990000044 990000165 990000035 990000170 990000154 990000080 
990000191 990000017 990000243 990000105 990000236 990000012 990000006 990000167 990000115 990000008 990000205 990000057 990000216 990000201 990000237 
990000315 990000284 990000169 990000010 990000030 990000020 990000272 990000151 990000271 990000238 990000084 990000063 990000035 990000063 990000270 
990000161 990000252 990000158 990000010 990000000 990000313 990000055 990000266 990000234 990000133 990000072 990000187 990000100 990000136 990000212 
990000253 990000259 990000135 990000263 990000266 990000112 990000075 990000167 990000255 990000248 990000049 990000068 990000008 990000252 990000106 
990000060 990000059 990000288 990000160 990000059 990000252 990000219 990000083 990000026 990000178 990000036 990000264 990000086 990000031 990000169 
990000176 990000277 990000199 990000143 990000232 990000296 990000173 990000275 990000049 990000203 990000031 990000078 990000084 990000103 990000225 
990000117 990000111 990000218 990000029 990000013 990000078 990000252 990000315 990000014 990000061 990000262 990000266 990000095 990000143 990000014 
990000261 990000147 990000156 990000000 990000013 990000260 990000254 990000193 990000236 990000208 990000216 990000199 990000307 990000034 990000245 
990000291 990000139 990000035 990000256 990000220 990000192 990000290 990000208 990000054 990000224 990000215 990000153 990000147 990000035 990000087 
990000012 990000102 990000287 990000086 990000202 990000003 990000037 990000034 990000097 990000260 990000297 990000265 990000056 990000061 990000165 
990000102 990000070 990000295 990000298 990000227 990000099 990000280 990000112 990000009 990000132 990000245 990000293 990000109 990000142 990000173 
990000141 990000123 990000086 990000039 990000258 990000226 990000121 990000252 990000241 990000221 990000017 990000079 990000155 990000007 990000049 
990000248 990000212 990000143 990000044 990000209 990000237 990000063 990000046 990000137 990000169 990000252 990000252 990000281 990000059 990000071 
990000107 990000028 990000200 990000241 990000173 990000042 990000231 990000175 990000125 990000289 990000307 990000277 990000162 990000004 990000173 
990000142 990000287 990000131 990000115 990000161 990000103 990000084 990000134 990000256 990000206 990000099 990000195 990000201 990000202 990000078 
990000174 990000143 990000030 990000077 990000028 990000136 990000048 990000189 990000008 990000265 990000086 990000175 990000065 990000002 990000084 
990000150 990000185 990000070 990000067 990000044 990000056 990000244 990000064 990000300 990000264 990000307 990000264 990000106 990000194 990000210 
990000288 990000152 990000266 990000287 990000029 990000270 990000142 990000055 990000005 990000093 990000022 990000211 990000292 990000095 990000008 
990000016 990000087 990000020 990000149 990000243 990000123 990000082 990000038 990000201 990000037 990000129 990000011 990000278 990000046 990000054 
990000017 990000281 990000008 990000283 990000055 990000265 990000306 990000148 990000112 990000208 990000115 990000130 990000094 990000211 990000203 
990000087 990000221 990000303 990000155 990000036 990000279 990000081 990000148 990000296 990000132 990000198 990000143 990000202 990000111 990000230 
990000081 990000191 990000062 990000104 990000112 990000111 990000213 990000079 990000032 990000183 990000159 990000166 990000086 990000237 990000134 
990000152 990000271 990000149 990000138 990000287 990000172 990000036 990000293 990000164 990000210 990000076 990000000 990000184 990000094 990000237 
990000067 990000196 990000170 990000045 990000180 990000117 990000125 990000052 990000212 990000067 990000130 990000051 990000239 990000061 990000141 
990000204 990000155 990000246 990000115 990000083 990000257 990000184 990000026 990000306 990000257 990000288 990000077 990000249 990000121 990000171 
990000303 990000009 990000273 990000102 990000039 990000080 990000287 990000054 990000248 990000146 990000216 990000080 990000306 990000152 990000084 
990000144 990000310 990000208 990000101 990000101 990000061 990000142 990000132 990000170 990000117 990000132 990000129 990000141 990000009 990000138 
990000050 990000215 990000200 990000266 990000208 990000262 990000222 990000084 990000295 990000136 990000227 990000021 990000125 990000197 990000111 
990000246 990000031 990000229 990000244 990000165 990000109 990000025 990000236 990000067 990000229 990000285 990000285 990000172 990000103 990000063 
990000030 990000125 990000021 990000197 990000222 990000143 990000004 990000086 990000133 990000096 990000012 990000036 990000140 990000049 990000271 
990000256 990000164 990000270 990000058 990000115 990000199 990000192 990000157 990000053 990000256 990000244 990000118 990000033 990000174 990000228 
990000062 990000003 990000068 990000169 990000137 990000055 990000245 990000010 990000181 990000079 990000193 990000078 990000126 990000308 990000221 
990000210 990000238 990000107 990000171 990000222 990000046 990000281 990000278 990000027 990000086 990000291 990000285 990000147 990000028 990000050 
990000228 990000130 990000261 990000303 990000279 990000221 990000021 990000262 990000154 990000258 990000102 990000042 990000255 990000089 990000065 
990000198 990000124 990000260 990000222 990000084 990000314 990000299 990000015 990000249 990000063 990000251 990000037 990000138 990000259 990000234 
990000212 990000004 990000055 990000132 990000286 990000112 990000108 990000119 990000235 990000282 990000111 990000147 990000177 990000001 990000193 
990000069 990000161 990000072 990000179 990000091 990000299 990000222 990000043 990000053 990000221 990000022 990000249 990000189 990000024 990000010 
990000310 990000218 990000052 990000027 990000163 990000276 990000187 990000094 990000141 990000269 990000250 990000184 990000249 990000105 990000125 
990000081 990000220 990000190 990000282 990000108 990000184 990000307 990000185 990000244 990000177 990000228 990000076 990000040 990000295 990000211 
990000028 990000103 990000289 990000112 990000162 990000239 990000248 990000012 990000274 990000037 990000075 990000149 990000133 990000090 990000040 
990000027 990000286 990000059 990000081 990000176 990000232 990000264 990000157 990000092 990000148 990000232 990000039 990000256 990000141 990000186 
990000199 990000118 990000142 990000125 990000182 990000006 990000120 990000020 990000242 990000234 990000177 990000225 990000162 990000174 990000270 
990000245 990000072 990000235 990000220 990000229 990000006 990000103 990000251 990000066 990000152 990000062 990000232 990000088 990000079 990000197 
990000206 990000302 990000212 990000066 990000216 990000115 990000196 990000294 990000172 990000266 990000265 990000248 990000042 990000274 990000294 
990000047 990000228 990000213 990000122 990000032 990000146 990000100 990000277 990000047 990000123 990000256 990000135 990000229 990000258 990000210 
990000196 990000264 990000200 990000003 990000178 990000032 990000079 990000307 990000035 990000118 990000264 990000037 990000129 990000120 990000275 
990000212 990000247 990000206 990000274 990000314 990000076 990000190 990000050 990000073 990000040 990000240 990000284 990000032 990000248 990000225 
990000028 990000001 990000253 990000287 990000147 990000172 990000284 990000042 990000123 990000308 990000251 990000007 990000237 990000073 990000062 
990000116 990000270 990000255 990000077 990000270 990000254 990000077 990000239 990000164 990000111 990000170 990000232 990000218 990000142 990000136 
990000001 990000174 990000155 990000120 990000280 990000075 990000007 990000199 990000004 990000053 990000085 990000118 990000168 990000010 990000036 
990000034 990000088 990000242 990000082 990000027 990000272 990000002 990000211 990000224 990000051 990000128 990000109 990000180 990000054 990000220 
990000140 990000158 990000192 990000064 990000159 990000293 990000123 990000096 990000193 990000099 990000221 990000097 990000259 990000053 990000290 
990000057 990000063 990000136 990000023 990000292 990000154 990000288 990000125 990000184 990000021 990000048 990000289 990000241 990000144 990000048 
990000096 990000296 990000256 990000040 990000087 990000235 990000000 990000082 990000192 990000226 990000275 990000112 990000087 990000091 990000022 
990000009 990000033 990000314 990000256 990000295 990000255 990000236 990000016 990000270 990000266 990000207 990000283 990000085 990000155 990000075 
990000171 990000176 990000115 990000309 990000289 990000283 990000072 990000075 990000254 990000269 990000030 990000217 990000306 990000073 990000225 
990000125 990000147 990000241 990000224 990000235 990000133 990000239 990000080 990000297 990000006 990000122 990000184 990000234 990000015 990000131 
990000198 990000106 990000116 990000065 990000100 990000283 990000183 990000148 990000225 990000308 990000025 990000124 990000264 990000054 990000206 
990000128 990000033 990000092 990000096 990000131 990000253 990000061 990000120 990000044 990000306 990000146 990000162 990000078 990000099 990000139 
990000312 990000275 990000238 990000021 990000174 990000308 990000129 990000274 990000114 990000285 990000196 990000186 990000309 990000229 990000188 
990000183 990000103 990000052 990000002 990000197 990000218 990000310 990000227 990000117 990000051 990000169 990000157 990000017 990000194 990000095 
990000267 990000265 990000069 990000083 990000308 990000102 990000097 990000143 990000043 990000110 990000130 990000104 990000039 990000089 990000286 
990000095 990000100 990000141 990000105 990000032 990000180 990000174 990000286 990000210 990000110 990000185 990000103 990000168 990000289 990000176 
990000068 990000237 990000112 990000151 990000068 990000260 990000118 990000172 990000137 990000091 990000291 990000167 990000191 990000315 990000036 
990000121 990000092 990000033 990000018 990000236 990000129 990000170 990000082 990000084 990000050 990000095 990000018 990000067 990000177 990000232 
990000250 990000053 990000034 990000204 990000058 990000243 990000144 990000274 990000025 990000299 990000037 990000269 990000163 990000005 990000161 
990000236 990000313 990000178 990000171 990000109 990000169 990000128 990000137 990000017 990000066 990000307 990000231 990000249 990000023 990000029 
990000239 990000189 990000136 990000050 990000110 990000172 990000293 990000076 990000308 990000186 990000089 990000150 990000199 990000283 990000121 
990000212 990000308 990000085 990000180 990000036 990000131 990000089 990000124 990000065 990000262 990000109 990000039 990000148 990000086 990000031 
990000313 990000196 990000047 990000223 990000142 990000265 990000147 990000301 990000118 990000069 990000078 990000306 990000131 990000251 990000278 
990000194 990000107 990000076 990000168 990000084 990000183 990000063 990000092 990000075 990000025 990000279 990000200 990000261 990000161 990000217 
990000237 990000079 990000303 990000261 990000107 990000306 990000098 990000100 990000276 990000239 990000195 990000172 990000249 990000015 990000245 
990000025 990000218 990000299 990000102 990000264 990000245 990000115 990000224 990000115 990000094 990000198 990000135 990000087 990000163 990000143 
990000279 990000039 990000185 990000080 990000031 990000154 990000201 990000278 990000255 990000085 990000307 990000222 990000309 990000192 990000224 
990000245 990000076 990000112 990000227 990000096 990000107 990000222 990000067 990000160 990000001 990000016 990000105 990000153 990000269 990000075 
990000208 990000118 990000103 990000047 990000306 990000034 990000240 990000257 990000079 990000243 990000249 990000234 990000254 990000114 990000068 
990000172 990000293 990000148 990000052 990000204 990000265 990000246 990000132 990000253 990000282 990000069 990000296 990000110 990000069 990000130 
990000161 990000032 990000293 990000261 990000160 990000279 990000057 990000293 990000166 990000256 990000266 990000185 990000120 990000209 990000119 
990000243 990000120 990000094 990000175 990000205 990000294 990000312 990000307 990000278 990000166 990000313 990000202 990000304 990000195 990000169 
990000218 990000043 990000081 990000254 990000187 990000034 990000018 990000096 990000200 990000189 990000209 990000220 990000183 990000272 990000212 
990000104 990000232 990000138 990000045 990000172 990000125 990000038 990000240 990000274 990000171 990000226 990000126 990000098 990000030 990000275 
990000048 990000305 990000104 990000130 990000219 990000245 990000066 990000008 990000032 990000094 990000132 990000294 990000125 990000270 990000000 
990000168 990000173 990000129 990000259 990000073 990000167 990000124 990000121 990000000 990000223 990000301 990000176 990000067 990000226 990000008 
990000308 990000171 990000113 990000162 990000028 990000174 990000226 990000145 990000090 990000282 990000040 990000270 990000090 990000015 990000090 
990000260 990000239 990000165 990000023 990000306 990000154 990000205 990000234 990000289 990000174 990000255 990000211 990000269 990000206 990000310 
990000112 990000295 990000019 990000129 990000184 990000124 990000292 990000238 990000185 990000262 990000287 990000198 990000145 990000138 990000112 
990000074 990000000 990000196 990000282 990000151 990000138 990000193 990000083 990000146 990000274 990000030 990000023 990000027 990000093 990000269 
990000125 990000117 990000246 990000091 990000087 990000035 990000259 990000116 990000225 990000048 990000182 990000265 990000142 990000159 990000051 
990000295 990000023 990000006 990000262 990000048 990000215 990000086 990000178 990000080 990000057 990000040 990000012 990000245 990000286 990000093 
990000047 990000095 990000188 990000029 990000285 990000244 990000092 990000011 990000136 990000008 990000263 990000302 990000228 990000204 990000157 
990000261 990000045 990000181 990000104 990000287 990000078 990000197 990000236 990000206 990000043 990000181 990000191 990000227 990000262 990000269 
990000074 990000263 990000034 990000098 990000285 990000295 990000302 990000046 990000178 990000175 990000169 990000221 990000258 990000134 990000158 
990000204 990000057 990000119 990000273 990000141 990000253 990000313 990000219 990000200 990000282 990000079 990000289 990000114 990000231 990000155 
990000041 990000261 990000046 990000306 990000070 990000026 990000047 990000201 990000251 990000072 990000197 990000073 990000244 990000203 990000150 
990000174 990000090 990000001 990000198 990000075 990000154 990000313 990000203 990000128 990000057 990000211 990000306 990000073 990000028 990000217 
990000191 990000144 990000221 990000311 990000212 990000042 990000228 990000315 990000074 990000164 990000233 990000096 990000025 990000135 990000199 
990000242 990000143 990000168 990000018 990000039 990000084 990000128 990000172 990000158 990000311 990000283 990000132 990000120 990000054 990000184 
990000208 990000276 990000249 990000242 990000022 990000266 990000115 990000068 990000170 990000032 990000278 990000297 990000121 990000169 990000098 
990000107 990000276 990000214 990000249 990000023 990000016 990000010 990000232 990000133 990000254 990000217 990000019 990000000 990000212 990000101 
990000080 990000260 990000297 990000173 990000131 990000177 990000128 990000165 990000203 990000238 990000009 990000287 990000038 990000050 990000297 
990000243 990000276 990000183 990000105 990000147 990000288 990000002 990000123 990000283 990000056 990000268 990000218 990000220 990000280 990000286 
990000097 990000015 990000266 990000157 990000119 990000011 990000111 990000105 990000023 990000142 990000299 990000057 990000209 990000015 990000304 
990000024 990000078 990000038 990000291 990000029 990000096 990000065 990000172 990000167 990000150 990000152 990000261 990000304 990000175 990000296 
990000286 990000293 990000007 990000039 990000218 990000083 990000278 990000281 990000139 990000018 990000307 990000180 990000161 990000033 990000095 
990000136 990000263 990000192 990000001 990000186 990000051 990000275 990000287 990000216 990000217 990000040 990000267 990000194 990000019 990000265 
990000253 990000205 990000286 990000281 990000241 990000087 990000258 990000102 990000158 990000193 990000033 990000121 990000185 990000174 990000268 
990000274 990000157 990000049 990000275 990000060 990000180 990000155 990000296 990000259 990000224 990000036 990000103 990000311 990000140 990000213 
990000066 990000222 990000163 990000196 990000174 990000114 990000093 990000125 990000196 990000290 990000027 990000145 990000032 990000060 990000071 
990000306 990000311 990000221 990000124 990000000 990000036 990000053 990000105 990000177 990000054 990000247 990000185 990000313 990000138 990000175 
990000107 990000085 990000074 990000033 990000071 990000239 990000019 990000279 990000002 990000147 990000242 990000123 990000273 990000023 990000043 
990000272 990000054 990000223 990000140 990000040 990000048 990000276 990000281 990000048 990000058 990000112 990000057 990000152 990000236 990000159 
990000078 990000131 990000019 990000186 990000216 990000017 990000156 990000147 990000314 990000134 990000004 990000042 990000037 990000189 990000244 
990000253 990000120 990000141 990000222 990000208 990000082 990000076 990000110 990000185 990000296 990000027 990000064 990000108 990000036 990000211 
990000315 990000294 990000227 990000185 990000315 990000080 990000290 990000117 990000234 990000180 990000269 990000050 990000203 990000099 990000082 
990000304 990000160 990000269 990000049 990000023 990000059 990000163 990000108 990000053 990000304 990000246 990000164 990000243 990000288 990000084 
990000085 990000166 990000264 990000026 990000201 990000275 990000049 990000052 990000153 990000103 990000048 990000119 990000089 990000107 990000123 
990000196 990000019 990000212 990000153 990000113 990000272 990000022 990000177 990000195 990000292 990000171 990000219 990000045 990000081 990000041 
990000220 990000042 990000235 990000219 990000309 990000015 990000212 990000291 990000264 990000300 990000073 990000002 990000100 990000038 990000107 
990000053 990000200 990000263 990000262 990000128 990000239 990000175 990000095 990000282 990000076 990000263 990000037 990000019 990000103 990000213 
990000151 990000095 990000297 990000029 990000098 990000028 990000296 990000245 990000241 990000272 990000243 990000181 990000050 990000306 990000181 
990000146 990000173 990000012 990000173 990000026 990000277 990000274 990000102 990000273 990000204 990000091 990000136 990000177 990000270 990000027 
990000133 990000274 990000029 990000230 990000076 990000113 990000138 990000199 990000191 990000268 990000302 990000209 990000256 990000267 990000305 
990000226 990000103 990000288 990000040 990000259 990000172 990000050 990000042 990000229 990000106 990000029 990000069 990000237 990000125 990000027 
990000261 990000044 990000207 990000012 990000021 990000211 990000115 990000278 990000259 990000030 990000008 990000204 990000192 990000152 990000129 
990000234 990000076 990000236 990000149 990000194 990000057 990000100 990000244 990000096 990000171 990000173 990000263 990000053 990000044 990000148 
990000052 990000143 990000145 990000238 990000190 990000050 990000074 990000176 990000260 990000160 990000281 990000235 990000277 990000001 990000151 
990000143 990000140 990000250 990000088 990000247 990000013 990000017 990000222 990000258 990000017 990000106 990000085 990000122 990000037 990000187 
990000260 990000300 990000303 990000124 990000017 990000277 990000034 990000050 990000160 990000262 990000149 990000079 990000124 990000308 990000272 
990000019 990000239 990000048 990000308 990000031 990000101 990000146 990000154 990000185 990000260 990000017 990000287 990000198 990000013 990000068 
990000192 990000029 990000208 990000062 990000215 990000301 990000251 990000126 990000203 990000191 990000127 990000042 990000295 990000019 990000272 
990000003 990000251 990000162 990000104 990000221 990000072 990000038 990000215 990000059 990000259 990000007 990000067 990000253 990000046 990000142 
990000281 990000031 990000060 990000001 990000018 990000228 990000004 990000144 990000082 990000083 990000078 990000113 990000194 990000178 990000263 
990000016 990000141 990000214 990000224 990000050 990000158 990000300 990000230 990000281 990000242 990000185 990000310 990000201 990000040 990000310 
990000258 990000027 990000119 990000307 990000073 990000241 990000244 990000103 990000302 990000080 990000245 990000105 990000229 990000227 990000215 
990000267 990000295 990000222 990000091 990000275 990000257 990000031 990000161 990000252 990000097 990000041 990000255 990000284 990000262 990000164 
990000073 990000123 990000203 990000290 990000133 990000292 990000047 990000067 990000056 990000191 990000233 990000272 990000218 990000252 990000173 
990000227 990000217 990000146 990000112 990000152 990000170 990000260 990000192 990000153 990000017 990000184 990000012 990000190 990000280 990000031 
990000011 990000185 990000039 990000190 990000152 990000297 990000081 990000086 990000114 990000173 990000100 990000284 990000117 990000046 990000288 
990000009 990000282 990000284 990000104 990000033 990000103 990000180 990000230 990000031 990000215 990000044 990000166 990000218 990000173 990000020 
990000010 990000236 990000020 990000194 990000071 990000050 990000095 990000266 990000021 990000081 990000042 990000313 990000038 990000014 990000298 
990000273 990000298 990000006 990000213 990000286 990000012 990000105 990000310 990000133 990000315 990000166 990000248 990000252 990000100 990000008 
990000126 990000007 990000305 990000166 990000259 990000088 990000271 990000031 990000067 990000147 990000270 990000041 990000067 990000154 990000204 
990000049 990000209 990000056 990000082 990000244 990000144 990000229 990000065 990000047 990000034 990000291 990000084 990000234 990000301 990000281 
990000159 990000016 990000185 990000148 990000173 990000160 990000035 990000015 990000088 990000277 990000076 990000009 990000237 990000234 990000093 
990000179 990000172 990000201 990000304 990000001 990000307 990000075 990000224 990000292 990000286 990000301 990000236 990000262 990000035 990000012 
990000264 990000027 990000075 990000161 990000101 990000189 990000031 990000204 990000240 990000100 990000135 990000172 990000066 990000205 990000284 
990000124 990000128 990000202 990000089 990000246 990000268 990000031 990000245 990000243 990000193 990000225 990000217 990000092 990000310 990000214 
990000295 990000126 990000087 990000214 990000212 990000286 990000165 990000051 990000077 990000113 990000093 990000045 990000242 990000035 990000153 
990000077 990000153 990000135 990000148 990000121 990000074 990000228 990000085 990000065 990000175 990000005 990000004 990000039 990000153 990000305 
990000174 990000059 990000204 990000222 990000040 990000286 990000030 990000241 990000307 990000306 990000180 990000207 990000088 990000139 990000014 
990000004 990000309 990000235 990000186 990000295 990000065 990000118 990000137 990000215 990000163 990000189 990000107 990000059 990000135 990000034 
990000094 990000050 990000126 990000285 990000166 990000082 990000029 990000079 990000237 990000308 990000149 990000198 990000148 990000005 990000040 
990000030 990000284 990000134 990000014 990000273 990000185 990000180 990000139 990000043 990000180 990000216 990000238 990000130 990000152 990000158 
990000279 990000185 990000016 990000048 990000123 990000132 990000185 990000216 990000304 990000177 990000057 990000129 990000133 990000055 990000297 
990000129 990000177 990000027 990000002 990000237 990000239 990000144 990000080 990000082 990000010 990000166 990000169 990000217 990000050 990000031 
990000161 990000002 990000280 990000154 990000022 990000060 990000110 990000184 990000033 990000262 990000303 990000304 990000266 990000027 990000098 
990000253 990000059 990000270 990000138 990000080 990000209 990000253 990000178 990000217 990000140 990000097 990000038 990000137 990000026 990000199 
990000135 990000214 990000308 990000059 990000223 990000136 990000094 990000028 990000197 990000128 990000310 990000102 990000000 990000284 990000053 
990000085 990000051 990000257 990000131 990000195 990000197 990000166 990000005 990000178 990000058 990000154 990000126 990000021 990000067 990000286 
990000137 990000142 990000170 990000202 990000256 990000270 990000106 990000203 990000223 990000001 990000057 990000298 990000204 990000238 990000061 
990000077 990000028 990000033 990000070 990000241 990000291 990000298 990000305 990000298 990000119 990000152 990000063 990000229 990000184 990000174 
990000085 990000251 990000088 990000298 990000045 990000314 990000156 990000209 990000162 990000211 990000045 990000152 990000035 990000121 990000095 
990000100 990000172 990000175 990000176 990000005 990000314 990000058 990000136 990000246 990000134 990000238 990000049 990000022 990000093 990000116 
990000092 990000304 990000264 990000210 990000281 990000127 990000249 990000044 990000050 990000089 990000247 990000175 990000256 990000047 990000185 
990000093 990000207 990000030 990000159 990000198 990000029 990000055 990000250 990000280 990000170 990000171 990000167 990000035 990000168 990000182 
990000032 990000168 990000044 990000011 990000244 990000189 990000287 990000121 990000198 990000219 990000153 990000306 990000042 990000065 990000235 
990000219 990000153 990000042 990000228 990000022 990000292 990000090 990000295 990000201 990000004 990000191 990000285 990000036 990000114 990000173 
990000161 990000115 990000240 990000022 990000278 990000111 990000233 990000266 990000193 990000004 990000024 990000090 990000268 990000309 990000041 
990000168 990000092 990000141 990000049 990000156 990000242 990000110 990000181 990000275 990000218 990000173 990000130 990000123 990000158 990000211 
990000286 990000205 990000198 990000125 990000000 990000160 990000172 990000172 990000039 990000275 990000093 990000096 990000191 990000035 990000129 
990000012 990000081 990000248 990000130 990000167 990000026 990000147 990000209 990000059 990000232 990000005 990000314 990000110 990000090 990000117 
990000131 990000243 990000263 990000165 990000168 990000304 990000066 990000044 990000075 990000022 990000310 990000278 990000009 990000037 990000051 
990000136 990000247 990000312 990000110 990000212 990000085 990000306 990000241 990000111 990000221 990000162 990000283 990000269 990000083 990000071 
990000267 990000199 990000245 990000079 990000176 990000286 990000280 990000128 990000137 990000292 990000060 990000185 990000014 990000125 990000251 
990000051 990000104 990000231 990000109 990000197 990000241 990000174 990000061 990000227 990000228 990000160 990000197 990000069 990000224 990000073 
990000229 990000098 990000100 990000142 990000252 990000209 990000119 990000044 990000272 990000280 990000069 990000142 990000165 990000144 990000059 
990000146 990000309 990000126 990000290 990000315 990000221 990000023 990000104 990000209 990000117 990000156 990000048 990000226 990000187 990000254 
990000145 990000166 990000136 990000017 990000147 990000286 990000288 990000072 990000023 990000236 990000209 990000214 990000246 990000228 990000024 
990000149 990000129 990000071 990000161 990000047 990000194 990000063 990000158 990000287 990000144 990000197 990000255 990000231 990000094 990000100 
990000026 990000219 990000220 990000120 990000088 990000282 990000283 990000063 990000049 990000272 990000012 990000156 990000216 990000209 990000036 
990000191 990000003 990000155 990000176 990000130 990000309 990000128 990000046 990000081 990000291 990000079 990000133 990000122 990000094 990000154 
990000048 990000084 990000078 990000314 990000119 990000115 990000109 990000180 990000163 990000309 990000164 990000212 990000285 990000185 990000027 
990000101 990000123 990000156 990000220 990000118 990000152 990000242 990000207 990000286 990000223 990000192 990000126 990000280 990000032 990000039 
990000274 990000002 990000132 990000089 990000219 990000221 990000284 990000095 990000191 990000306 990000261 990000300 990000103 990000266 990000184 
990000004 990000315 990000086 990000107 990000017 990000249 990000270 990000245 990000134 990000302 990000137 990000061 990000283 990000082 990000310 
990000107 990000030 990000267 990000196 990000180 990000223 990000257 990000310 990000077 990000248 990000150 990000190 990000215 990000081 990000103 
990000105 990000064 990000223 990000048 990000200 990000175 990000204 990000011 990000295 990000171 990000068 990000273 990000233 990000248 990000084 
990000194 990000013 990000199 990000034 990000004 990000186 990000073 990000102 990000276 990000299 990000076 990000070 990000254 990000250 990000191 
990000270 990000280 990000044 990000009 990000063 990000267 990000010 990000125 990000287 990000191 990000053 990000254 990000226 990000178 990000082 
990000280 990000234 990000200 990000282 990000020 990000215 990000191 990000137 990000120 990000246 990000216 990000294 990000243 990000057 990000099 
990000000 990000024 990000088 990000162 990000113 990000294 990000252 990000070 990000186 990000108 990000219 990000275 990000100 990000070 990000014 
990000263 990000188 990000177 990000260 990000295 990000291 990000147 990000124 990000099 990000266 990000247 990000111 990000277 990000145 990000004 
990000205 990000121 990000119 990000233 990000047 990000018 990000083 990000077 990000135 990000298 990000143 990000076 990000041 990000201 990000256 
990000299 990000138 990000182 990000079 990000251 990000012 990000299 990000089 990000166 990000231 990000204 990000303 990000043 990000189 990000183 
990000038 990000229 990000266 990000120 990000218 990000012 990000107 990000006 990000010 990000201 990000250 990000068 990000141 990000081 990000263 
990000015 990000281 990000105 990000112 990000241 990000299 990000007 990000221 990000139 990000072 990000294 990000215 990000254 990000253 990000181 
990000232 990000074 990000235 990000272 990000004 990000141 990000095 990000075 990000240 990000191 990000061 990000066 990000026 990000106 990000052 
990000035 990000259 990000287 990000275 990000268 990000002 990000298 990000240 990000175 990000034 990000177 990000201 990000295 990000284 990000012 
990000193 990000107 990000172 990000150 990000169 990000063 990000111 990000246 990000216 990000268 990000290 990000037 990000142 990000255 990000135 
990000173 990000284 990000026 990000151 990000051 990000138 990000108 990000058 990000120 990000274 990000220 990000065 990000184 990000190 990000178 
990000010 990000248 990000205 990000094 990000184 990000171 990000153 990000300 990000275 990000060 990000063 990000178 990000190 990000084 990000084 
990000210 990000182 990000302 990000292 990000238 990000244 990000088 990000278 990000157 990000294 990000310 990000146 990000270 990000237 990000111 
990000156 990000173 990000152 990000029 990000078 990000243 990000074 990000057 990000293 990000005 990000000 990000083 990000078 990000196 990000250 
990000192 990000190 990000282 990000193 990000107 990000146 990000250 990000195 990000127 990000007 990000259 990000312 990000102 990000246 990000285 
990000105 990000232 990000107 990000213 990000080 990000159 990000189 990000300 990000197 990000292 990000127 990000231 990000074 990000163 990000231 
990000008 990000303 990000026 990000270 990000159 990000125 990000149 990000301 990000012 990000090 990000230 990000245 990000174 990000274 990000110 
990000155 990000257 990000003 990000030 990000187 990000314 990000277 990000294 990000248 990000027 990000277 990000203 990000037 990000167 990000297 
990000132 990000265 990000137 990000233 990000080 990000243 990000124 990000087 990000100 990000157 990000091 990000031 990000311 990000012 990000126 
990000022 990000168 990000161 990000282 990000302 990000164 990000113 990000265 990000011 990000198 990000216 990000210 990000054 990000092 990000161 
990000195 990000217 990000270 990000011 990000062 990000264 990000219 990000305 990000211 990000181 990000141 990000174 990000031 990000116 990000260 
990000100 990000263 990000290 990000222 990000016 990000112 990000117 990000228 990000243 990000300 990000209 990000034 990000194 990000270 990000212 
990000070 990000289 990000225 990000174 990000149 990000207 990000053 990000220 990000051 990000215 990000247 990000080 990000314 990000100 990000096 
990000310 990000303 990000021 990000281 990000020 990000202 990000288 990000215 990000222 990000009 990000274 990000032 990000237 990000032 990000016 
990000132 990000251 990000209 990000307 990000287 990000076 990000225 990000275 990000192 990000078 990000172 990000139 990000252 990000044 990000252 
990000094 990000150 990000270 990000170 990000003 990000176 990000258 990000154 990000121 990000260 990000243 990000234 990000114 990000045 990000026 
990000007 990000027 990000198 990000215 990000213 990000269 990000071 990000223 990000182 990000085 990000225 990000184 990000111 990000172 990000197 
990000238 990000196 990000118 990000273 990000206 990000019 990000218 990000028 990000218 990000132 990000011 990000233 990000010 990000237 990000163 
990000063 990000084 990000223 990000052 990000097 990000000 990000054 990000065 990000215 990000195 990000276 990000060 990000063 990000011 990000270 
990000157 990000232 990000224 990000220 990000011 990000132 990000100 990000000 990000158 990000029 990000262 990000315 990000282 990000235 990000098 
990000205 990000226 990000023 990000194 990000020 990000157 990000134 990000130 990000040 990000277 990000245 990000216 990000079 990000075 990000113 
990000107 990000182 990000060 990000032 990000247 990000021 990000193 990000177 990000150 990000126 990000291 990000155 990000188 990000298 990000286 
990000202 990000310 990000249 990000253 990000187 990000230 990000297 990000083 990000107 990000204 990000183 990000211 990000135 990000246 990000159 
990000280 990000281 990000080 990000255 990000260 990000032 990000124 990000000 990000212 990000031 990000113 990000030 990000205 990000030 990000294 
990000047 990000151 990000222 990000100 990000127 990000169 990000000 990000263 990000272 990000059 990000298 990000220 990000187 990000029 990000095 
990000233 990000036 990000221 990000146 990000022 990000309 990000245 990000254 990000101 990000275 990000080 990000130 990000270 990000102 990000184 
990000094 990000078 990000308 990000286 990000151 990000207 990000230 990000310 990000138 990000009 990000172 990000195 990000157 990000277 990000120 
990000260 990000243 990000149 990000134 990000268 990000299 990000045 990000300 990000246 990000269 990000195 990000199 990000184 990000082 990000287 
990000296 990000148 990000111 990000083 990000223 990000125 990000133 990000278 990000309 990000160 990000154 990000236 990000149 990000184 990000273 
990000087 990000270 990000109 990000193 990000182 990000189 990000060 990000286 990000278 990000305 990000233 990000037 990000162 990000213 990000262 
990000307 990000018 990000278 990000233 990000277 990000028 990000050 990000197 990000232 990000307 990000070 990000016 990000026 990000039 990000019 
990000019 990000191 990000234 990000049 990000042 990000219 990000200 990000141 990000052 990000121 990000003 990000018 990000073 990000161 990000299 
990000287 990000189 990000173 990000205 990000190 990000051 990000052 990000055 990000175 990000154 990000105 990000021 990000200 990000232 990000191 
990000192 990000177 990000130 990000229 990000022 990000109 990000229 990000039 990000095 990000183 990000270 990000118 990000041 990000300 990000153 
990000187 990000112 990000162 990000209 990000076 990000209 990000218 990000301 990000224 990000222 990000064 990000068 990000158 990000095 990000154 
990000049 990000161 990000050 990000313 990000210 990000172 990000051 990000274 990000104 990000123 990000091 990000033 990000180 990000044 990000192 
990000131 990000191 990000270 990000230 990000246 990000134 990000059 990000219 990000299 990000221 990000169 990000095 990000031 990000087 990000160 
990000075 990000314 990000059 990000153 990000249 990000306 990000092 990000089 990000113 990000095 990000165 990000097 990000148 990000132 990000152 
990000178 990000160 990000075 990000242 990000282 990000169 990000088 990000036 990000076 990000201 990000218 990000258 990000219 990000232 990000235 
990000139 990000159 990000240 990000199 990000147 990000045 990000156 990000092 990000054 990000306 990000096 990000090 990000178 990000023 990000166 
990000232 990000108 990000222 990000305 990000029 990000130 990000142 990000210 990000174 990000303 990000206 990000101 990000313 990000132 990000286 
990000091 990000091 990000292 990000179 990000233 990000141 990000147 990000018 990000013 990000027 990000265 990000080 990000252 990000038 990000301 
990000099 990000237 990000189 990000134 990000310 990000107 990000055 990000206 990000148 990000147 990000301 990000178 990000173 990000089 990000078 
990000291 990000062 990000066 990000173 990000266 990000256 990000228 990000179 990000056 990000056 990000259 990000030 990000142 990000220 990000220 
990000227 990000040 990000095 990000157 990000287 990000241 990000032 990000095 990000126 990000300 990000195 990000217 990000270 990000111 990000265 
990000142 990000243 990000227 990000283 990000311 990000203 990000161 990000298 990000188 990000211 990000206 990000008 990000294 990000039 990000099 
990000280 990000190 990000137 990000057 990000225 990000102 990000178 990000064 990000211 990000255 990000210 990000047 990000307 990000205 990000087 
990000033 990000202 990000273 990000114 990000272 990000061 990000144 990000099 990000089 990000009 990000300 990000208 990000029 990000232 990000110 
990000089 990000037 990000018 990000069 990000236 990000086 990000271 990000196 990000062 990000013 990000290 990000052 990000079 990000042 990000127 
990000221 990000009 990000096 990000148 990000120 990000093 990000118 990000220 990000219 990000095 990000102 990000134 990000062 990000221 990000306 
990000101 990000306 990000200 990000093 990000176 990000001 990000192 990000237 990000235 990000115 990000219 990000174 990000075 990000202 990000137 
990000183 990000153 990000314 990000153 990000080 990000007 990000233 990000237 990000101 990000048 990000298 990000005 990000285 990000171 990000129 
990000160 990000139 990000207 990000180 990000296 990000109 990000315 990000198 990000221 990000292 990000087 990000031 990000137 990000025 990000257 
990000257 990000141 990000157 990000180 990000100 990000101 990000109 990000166 990000062 990000215 990000041 990000141 990000111 990000303 990000084 
990000129 990000032 990000196 990000209 990000275 990000047 990000016 990000202 990000304 990000132 990000259 990000153 990000049 990000312 990000092 
990000077 990000199 990000001 990000105 990000256 990000232 990000228 990000294 990000114 990000167 990000224 990000041 990000054 990000215 990000172 
990000067 990000140 990000160 990000277 990000272 990000028 990000135 990000039 990000034 990000237 990000121 990000215 990000118 990000202 990000303 
990000307 990000232 990000253 990000283 990000263 990000118 990000055 990000208 990000132 990000301 990000089 990000285 990000016 990000261 990000204 
990000190 990000239 990000296 990000213 990000028 990000206 990000306 990000092 990000084 990000067 990000109 990000036 990000271 990000043 990000118 
990000012 990000179 990000194 990000161 990000011 990000099 990000109 990000100 990000228 990000070 990000113 990000024 990000153 990000008 990000232 
990000081 990000287 990000270 990000110 990000273 990000239 990000009 990000061 990000261 990000202 990000294 990000041 990000001 990000028 990000227 
990000304 990000155 990000252 990000255 990000050 990000311 990000201 990000217 990000196 990000275 990000162 990000085 990000279 990000232 990000314 
990000312 990000218 990000059 990000283 990000231 990000091 990000272 990000118 990000035 990000069 990000152 990000164 990000242 990000104 990000298 
990000122 990000139 990000002 990000137 990000284 990000125 990000035 990000130 990000249 990000276 990000020 990000008 990000128 990000161 990000147 
990000129 990000280 990000245 990000252 990000161 990000076 990000009 990000288 990000239 990000034 990000234 990000245 990000193 990000043 990000238 
990000232 990000063 990000040 990000233 990000248 990000136 990000070 990000171 990000185 990000266 990000262 990000279 990000025 990000117 990000268 
990000153 990000003 990000032 990000275 990000091 990000011 990000156 990000214 990000020 990000291 990000236 990000239 990000206 990000231 990000163 
990000019 990000287 990000189 990000138 990000231 990000119 990000132 990000192 990000152 990000171 990000164 990000287 990000279 990000124 990000303 
990000003 990000025 990000127 990000064 990000103 990000138 990000017 990000084 990000217 990000221 990000200 990000107 990000037 990000057 990000148 
990000218 990000021 990000289 990000125 990000246 990000162 990000260 990000142 990000205 990000164 990000040 990000275 990000248 990000253 990000134 
990000246 990000054 990000222 990000043 990000074 990000067 990000095 990000211 990000269 990000313 990000094 990000133 990000109 990000167 990000024 
990000284 990000170 990000169 990000025 990000043 990000189 990000009 990000195 990000013 990000283 990000095 990000282 990000236 990000129 990000213 
990000273 990000045 990000272 990000247 990000278 990000025 990000054 990000030 990000253 990000193 990000210 990000024 990000177 990000058 990000087 
990000205 990000027 990000000 990000293 990000270 990000018 990000258 990000153 990000145 990000209 990000135 990000016 990000210 990000289 990000058 
990000051 990000099 990000085 990000118 990000308 990000104 990000075 990000225 990000078 990000246 990000239 990000012 990000168 990000159 990000216 
990000008 990000062 990000183 990000032 990000298 990000289 990000108 990000147 990000282 990000150 990000218 990000008 990000055 990000238 990000186 
990000265 990000092 990000307 990000194 990000114 990000111 990000044 990000070 990000114 990000242 990000240 990000115 990000238 990000300 990000171 
990000067 990000213 990000239 990000014 990000279 990000110 990000100 990000206 990000118 990000070 990000143 990000308 990000251 990000067 990000095 
990000010 990000043 990000062 990000180 990000155 990000314 990000276 990000274 990000118 990000261 990000137 990000107 990000215 990000006 990000143 
990000033 990000011 990000045 990000046 990000051 990000139 990000103 990000012 990000015 990000096 990000222 990000222 990000274 990000172 990000210 
990000176 990000288 990000186 990000209 990000224 990000108 990000029 990000231 990000279 990000022 990000221 990000213 990000137 990000026 990000167 
990000281 990000004 990000102 990000168 990000135 990000280 990000044 990000305 990000305 990000196 990000135 990000211 990000283 990000158 990000109 
990000176 990000130 990000266 990000155 990000083 990000020 990000135 990000126 990000147 990000185 990000139 990000022 990000112 990000142 990000038 
990000146 990000187 990000213 990000110 990000153 990000090 990000263 990000112 990000258 990000124 990000199 990000004 990000280 990000235 990000160 
990000252 990000133 990000181 990000191 990000001 990000182 990000038 990000036 990000215 990000132 990000203 990000204 990000028 990000296 990000217 
990000148 990000068 990000295 990000157 990000095 990000050 990000137 990000164 990000263 990000176 990000121 990000264 990000083 990000202 990000186 
990000129 990000243 990000159 990000162 990000015 990000141 990000185 990000058 990000133 990000036 990000272 990000035 990000163 990000176 990000170 
990000026 990000278 990000092 990000048 990000092 990000108 990000249 990000262 990000314 990000128 990000280 990000058 990000197 990000257 990000011 
990000172 990000193 990000279 990000195 990000163 990000232 990000219 990000011 990000161 990000116 990000206 990000130 990000098 990000196 990000181 
990000089 990000289 990000158 990000049 990000280 990000220 990000199 990000176 990000040 990000015 990000156 990000125 990000099 990000008 990000002 
990000051 990000273 990000020 990000189 990000282 990000087 990000047 990000116 990000087 990000011 990000235 990000210 990000119 990000117 990000193 
990000065 990000139 990000071 990000289 990000299 990000113 990000273 990000313 990000127 990000040 990000236 990000237 990000179 990000063 990000162 
990000260 990000051 990000090 990000035 990000228 990000078 990000198 990000281 990000057 990000152 990000112 990000004 990000298 990000161 990000161 
990000029 990000157 990000204 990000119 990000126 990000006 990000216 990000093 990000167 990000251 990000079 990000006 990000162 990000105 990000042 
990000178 990000043 990000072 990000018 990000134 990000071 990000098 990000248 990000211 990000104 990000232 990000309 990000126 990000070 990000162 
990000266 990000085 990000070 990000306 990000067 990000039 990000082 990000052 990000167 990000135 990000034 990000146 990000301 990000189 990000180 
990000197 990000299 990000074 990000076 990000041 990000246 990000231 990000231 990000085 990000071 990000149 990000283 990000231 990000167 990000134 
990000056 990000299 990000083 990000125 990000176 990000116 990000012 990000169 990000279 990000147 990000306 990000222 990000082 990000306 990000032 
990000245 990000139 990000266 990000289 990000259 990000018 990000088 990000295 990000273 990000153 990000112 990000055 990000004 990000236 990000052 
990000143 990000290 990000160 990000144 990000001 990000062 990000079 990000163 990000189 990000083 990000045 990000303 990000123 990000153 990000116 
990000156 990000107 990000309 990000139 990000101 990000176 990000144 990000298 990000167 990000041 990000024 990000019 990000033 990000009 990000228 
990000217 990000274 990000163 990000147 990000013 990000083 990000025 990000269 990000007 990000118 990000252 990000127 990000212 990000008 990000221 
990000066 990000190 990000170 990000000 990000091 990000273 990000032 990000092 990000059 990000166 990000272 990000224 990000292 990000175 990000134 
990000183 990000217 990000112 990000088 990000048 990000233 990000203 990000163 990000241 990000152 990000132 990000311 990000103 990000107 990000096 
990000130 990000003 990000267 990000081 990000057 990000126 990000154 990000159 990000244 990000153 990000263 990000300 990000205 990000060 990000149 
990000095 990000001 990000286 990000036 990000032 990000168 990000118 990000101 990000125 990000296 990000118 990000105 990000082 990000049 990000264 
990000241 990000213 990000093 990000311 990000070 990000097 990000157 990000105 990000274 990000238 990000118 990000002 990000192 990000010 990000084 
990000041 990000011 990000281 990000048 990000110 990000043 990000296 990000249 990000185 990000001 990000001 990000142 990000053 990000138 990000289 
990000292 990000125 990000147 990000139 990000081 990000075 990000046 990000086 990000098 990000140 990000262 990000195 990000100 990000133 990000182 
990000305 990000027 990000107 990000150 990000128 990000033 990000019 990000071 990000146 990000294 990000130 990000022 990000154 990000184 990000244 
990000028 990000188 990000092 990000160 990000211 990000146 990000131 990000197 990000026 990000240 990000177 990000029 990000272 990000104 990000275 
990000177 990000205 990000074 990000132 990000006 990000066 990000303 990000074 990000177 990000180 990000109 990000173 990000031 990000048 990000152 
990000120 990000112 990000028 990000237 990000153 990000075 990000211 990000226 990000117 990000111 990000192 990000247 990000152 990000267 990000215 
990000290 990000172 990000038 990000265 990000095 990000125 990000050 990000187 990000280 990000101 990000124 990000006 990000052 990000137 990000221 
990000083 990000307 990000205 990000190 990000204 990000259 990000155 990000031 990000217 990000199 990000144 990000159 990000063 990000056 990000044 
990000213 990000078 990000225 990000033 990000304 990000066 990000014 990000095 990000039 990000281 990000313 990000021 990000096 990000033 990000289 
990000257 990000068 990000036 990000158 990000283 990000296 990000117 990000026 990000270 990000009 990000139 990000241 990000156 990000136 990000006 
990000065 990000209 990000065 990000207 990000166 990000007 990000063 990000299 990000037 990000231 990000065 990000008 990000120 990000213 990000005 
990000181 990000295 990000179 990000276 990000253 990000231 990000074 990000263 990000148 990000074 990000018 990000183 990000239 990000220 990000069 
990000001 990000271 990000147 990000315 990000270 990000061 990000011 990000154 990000235 990000098 990000141 990000283 990000284 990000060 990000187 
990000019 990000087 990000146 990000233 990000306 990000082 990000083 990000005 990000309 990000240 990000287 990000287 990000155 990000215 990000243 
990000236 990000115 990000228 990000044 990000234 990000026 990000036 990000296 990000029 990000251 990000259 990000094 990000147 990000161 990000120 
990000029 990000048 990000217 990000146 990000153 990000109 990000269 990000308 990000122 990000032 990000074 990000265 990000187 990000009 990000153 
990000151 990000269 990000261 990000038 990000175 990000059 990000278 990000019 990000178 990000239 990000236 990000196 990000293 990000187 990000261 
990000031 990000021 990000075 990000097 990000065 990000147 990000032 990000246 990000086 990000055 990000095 990000311 990000008 990000211 990000201 
990000128 990000248 990000285 990000159 990000067 990000278 990000240 990000251 990000067 990000116 990000202 990000236 990000221 990000146 990000272 
990000145 990000045 990000135 990000027 990000046 990000004 990000205 990000184 990000284 990000083 990000056 990000011 990000048 990000084 990000239 
990000259 990000083 990000304 990000228 990000087 990000307 990000154 990000079 990000078 990000075 990000001 990000066 990000279 990000270 990000218 
990000206 990000112 990000248 990000169 990000095 990000074 990000014 990000115 990000207 990000266 990000045 990000202 990000150 990000164 990000246 
990000018 990000079 990000051 990000031 990000081 990000153 990000103 990000231 990000234 990000013 990000220 990000029 990000257 990000009 990000008 
990000237 990000288 990000306 990000025 990000308 990000194 990000312 990000314 990000027 990000112 990000125 990000029 990000047 990000022 990000118 
990000275 990000057 990000285 990000232 990000236 990000199 990000246 990000238 990000235 990000165 990000267 990000236 990000144 990000019 990000005 
990000169 990000271 990000272 990000064 990000255 990000019 990000113 990000181 990000291 990000019 990000005 990000069 990000145 990000173 990000202 
990000162 990000063 990000246 990000214 990000113 990000117 990000115 990000172 990000105 990000057 990000093 990000107 990000053 990000200 990000140 
990000247 990000054 990000283 990000215 990000237 990000192 990000258 990000069 990000314 990000180 990000198 990000201 990000296 990000296 990000098 
990000290 990000066 990000216 990000077 990000230 990000031 990000269 990000300 990000202 990000059 990000253 990000257 990000167 990000023 990000196 
990000313 990000194 990000204 990000304 990000165 990000056 990000087 990000089 990000241 990000237 990000021 990000169 990000107 990000108 990000264 
990000299 990000151 990000260 990000267 990000031 990000199 990000039 990000049 990000315 990000056 990000223 990000058 990000266 990000258 990000203 
990000047 990000040 990000071 990000032 990000169 990000195 990000036 990000101 990000026 990000175 990000177 990000226 990000077 990000122 990000264 
990000124 990000309 990000100 990000146 990000183 990000214 990000042 990000291 990000118 990000228 990000246 990000209 990000244 990000262 990000176 
990000060 990000275 990000049 990000266 990000110 990000104 990000100 990000259 990000248 990000164 990000117 990000143 990000055 990000288 990000226 
990000292 990000211 990000013 990000003 990000233 990000265 990000263 990000301 990000307 990000144 990000261 990000137 990000170 990000251 990000306 
990000140 990000287 990000115 990000096 990000291 990000228 990000074 990000205 990000044 990000177 990000169 990000172 990000038 990000071 990000073 
990000187 990000236 990000204 990000238 990000207 990000198 990000196 990000190 990000208 990000093 990000096 990000141 990000293 990000182 990000178 
990000221 990000154 990000290 990000043 990000051 990000143 990000143 990000059 990000111 990000138 990000156 990000023 990000267 990000280 990000172 
990000020 990000256 990000059 990000083 990000084 990000270 990000066 990000034 990000115 990000035 990000026 990000126 990000231 990000172 990000158 
990000304 990000008 990000245 990000018 990000162 990000040 990000252 990000082 990000011 990000171 990000258 990000265 990000086 990000190 990000031 
990000014 990000295 990000058 990000288 990000111 990000179 990000010 990000016 990000090 990000083 990000164 990000306 990000278 990000052 990000307 
990000168 990000092 990000183 990000063 990000178 990000079 990000138 990000066 990000130 990000035 990000037 990000064 990000185 990000084 990000272 
990000298 990000091 990000081 990000266 990000238 990000142 990000193 990000295 990000228 990000054 990000290 990000209 990000081 990000169 990000170 
990000147 990000099 990000260 990000236 990000068 990000115 990000264 990000250 990000099 990000305 990000017 990000200 990000139 990000270 990000121 
990000209 990000048 990000099 990000276 990000005 990000179 990000234 990000240 990000212 990000257 990000031 990000074 990000124 990000256 990000068 
990000218 990000135 990000231 990000169 990000074 990000028 990000309 990000252 990000043 990000305 990000238 990000224 990000157 990000007 990000123 
990000301 990000170 990000215 990000265 990000137 990000238 990000301 990000049 990000275 990000307 990000088 990000260 990000108 990000074 990000087 
990000080 990000300 990000272 990000141 990000144 990000064 990000077 990000153 990000259 990000105 990000190 990000065 990000081 990000061 990000042 
990000290 990000003 990000245 990000124 990000193 990000182 990000100 990000073 990000263 990000012 990000154 990000132 990000113 990000128 990000081 
990000272 990000239 990000113 990000136 990000214 990000296 990000046 990000047 990000072 990000071 990000042 990000248 990000171 990000127 990000205 
990000147 990000132 990000063 990000125 990000030 990000227 990000273 990000037 990000009 990000126 990000306 990000075 990000237 990000025 990000203 
990000225 990000228 990000246 990000020 990000043 990000018 990000170 990000052 990000258 990000036 990000081 990000294 990000279 990000140 990000157 
990000025 990000159 990000010 990000115 990000004 990000119 990000064 990000127 990000217 990000301 990000310 990000235 990000113 990000288 990000165 
990000119 990000113 990000119 990000279 990000145 990000206 990000082 990000252 990000162 990000201 990000138 990000098 990000283 990000023 990000200 
990000101 990000000 990000296 990000169 990000194 990000079 990000167 990000203 990000023 990000000 990000235 990000077 990000020 990000017 990000246 
990000258 990000190 990000143 990000165 990000246 990000179 990000214 990000125 990000158 990000308 990000108 990000115 990000111 990000220 990000141 
990000108 990000170 990000082 990000096 990000201 990000257 990000251 990000191 990000082 990000183 990000083 990000070 990000002 990000187 990000259 
990000252 990000248 990000053 990000281 990000211 990000074 990000018 990000117 990000235 990000229 990000043 990000060 990000298 990000022 990000189 
990000164 990000009 990000026 990000117 990000165 990000084 990000286 990000161 990000165 990000213 990000023 990000173 990000164 990000037 990000069 
990000205 990000247 990000188 990000075 990000000 990000132 990000108 990000212 990000130 990000039 990000030 990000266 990000277 990000026 990000118 
990000282 990000076 990000305 990000314 990000149 990000282 990000273 990000086 990000260 990000010 990000136 990000128 990000120 990000031 990000006 
990000081 990000054 990000069 990000048 990000101 990000218 990000061 990000152 990000046 990000303 990000280 990000211 990000149 990000232 990000160 
990000288 990000082 990000183 990000104 990000054 990000023 990000150 990000035 990000170 990000081 990000308 990000281 990000012 990000072 990000166 
990000271 990000237 990000226 990000275 990000082 990000026 990000156 990000279 990000155 990000278 990000222 990000299 990000011 990000251 990000226 
990000167 990000040 990000116 990000124 990000001 990000053 990000169 990000278 990000079 990000121 990000008 990000241 990000052 990000192 990000057 
990000133 990000166 990000287 990000217 990000152 990000222 990000115 990000210 990000243 990000021 990000114 990000140 990000046 990000143 990000283 
990000072 990000187 990000027 990000009 990000096 990000127 990000041 990000107 990000313 990000226 990000041 990000184 990000194 990000134 990000261 
990000164 990000110 990000103 990000202 990000081 990000162 990000303 990000313 990000182 990000254 990000171 990000299 990000177 990000191 990000011 
990000261 990000124 990000195 990000153 990000160 990000019 990000094 990000258 990000301 990000167 990000209 990000074 990000088 990000165 990000222 
990000291 990000204 990000058 990000029 990000122 990000192 990000163 990000120 990000051 990000262 990000189 990000199 990000104 990000051 990000058 
990000211 990000254 990000008 990000090 990000130 990000125 990000194 990000050 990000016 990000067 990000314 990000263 990000207 990000228 990000208 
990000018 990000191 990000222 990000139 990000128 990000309 990000238 990000226 990000183 990000211 990000004 990000028 990000138 990000173 990000070 
990000264 990000032 990000261 990000117 990000216 990000193 990000303 990000181 990000101 990000114 990000232 990000016 990000212 990000128 990000074 
990000171 990000230 990000224 990000153 990000174 990000251 990000007 990000286 990000123 990000098 990000011 990000219 990000222 990000242 990000020 
990000244 990000186 990000094 990000147 990000099 990000117 990000021 990000025 990000076 990000183 990000273 990000223 990000100 990000039 990000307 
990000278 990000073 990000011 990000288 990000115 990000019 990000063 990000101 990000124 990000256 990000137 990000122 990000013 990000000 990000209 
990000106 990000142 990000132 990000042 990000104 990000110 990000038 990000047 990000263 990000285 990000010 990000141 990000142 990000025 990000058 
990000158 990000051 990000197 990000234 990000287 990000087 990000296 990000103 990000045 990000199 990000137 990000039 990000204 990000116 990000111 
990000174 990000122 990000170 990000150 990000110 990000095 990000216 990000227 990000038 990000201 990000077 990000071 990000062 990000141 990000052 
990000256 990000152 990000239 990000172 990000173 990000031 990000141 990000303 990000157 990000220 990000255 990000234 990000308 990000075 990000132 
990000074 990000263 990000297 990000231 990000072 990000119 990000124 990000057 990000217 990000085 990000280 990000048 990000069 990000234 990000030 
990000237 990000311 990000032 990000044 990000172 990000058 990000190 990000130 990000172 990000288 990000291 990000266 990000079 990000115 990000187 
990000176 990000013 990000306 990000111 990000093 990000093 990000231 990000000 990000159 990000140 990000074 990000016 990000114 990000165 990000262 
990000030 990000160 990000050 990000051 990000201 990000172 990000095 990000253 990000044 990000302 990000119 990000015 990000018 990000121 990000128 
990000304 990000027 990000214 990000103 990000026 990000176 990000294 990000044 990000138 990000127 990000019 990000180 990000133 990000051 990000273 
990000178 990000240 990000139 990000150 990000093 990000172 990000247 990000246 990000111 990000277 990000071 990000234 990000092 990000186 990000219 
990000040 990000262 990000146 990000281 990000305 990000174 990000060 990000103 990000240 990000140 990000211 990000226 990000180 990000162 990000025 
990000092 990000290 990000100 990000283 990000261 990000297 990000212 990000166 990000078 990000113 990000159 990000294 990000088 990000308 990000302 
990000150 990000164 990000069 990000033 990000094 990000171 990000036 990000013 990000142 990000062 990000031 990000117 990000220 990000059 990000098 
