619 45
rfiihhgiegfieeiiffgfhheiigeeffgfghgehefhiigffifhghfeigfhfffhghffhhgfheieefffegiehhegeighehfehgfffegffhhfegggiigiiehiifgifffeehffhfeiiheieeigfhhehgfieeffhgfieegifgeehhghehgfffhgeffgfgegegfgihfgfggfgfigiihfghegiffgffiheeeififihfeegfgiegegegffeghfieiiggfhfggiegihffgfhifefgffgfehffiihegieghefihgegfefggifhhegehhfhgehgfhiefefieiifighigfiggfieeeeigffifefghgihfhiheigiehhgegeghefefhfeeigegfheiieeeiffheehggegehehffhiffiegeeifhigggeegeegegiefihihghfeehggehhhiefggffhihefeeiieiiiigiieihfggigieigiegefgffifgiggiffhhgifhgeifggeihghhhgfifiigfffeigefhhfeifhfeeghhghhiiegfifigeifgiegefeiihgiifgihegigihhhiggiiiheifegffgfhfeifighihehfeihhfgiehiffgiihheg
rfhhgihfhfhieiheiiihggiehhfigiefheieiihefgfhffhgggeigfggehgieiehifeefigihhgiighgiehhfgfhhhghgihhfehiifhgfghhifgefeieeehhehfigfgefgihhgegifgeiifhfghfihiifghfeefggfgheiggeiggehefghhfhieggehigfheieeeeigghfihgifiiffhfhgeieifhhhheeheigeieiigffgeieeehgeiighhghfgffeeeegefhhgfgefgefgeigfhgfgegifefigfheefegeggffeihgegheieggighgeifiififffhhfiffeehhghhieffgefieheigiheeghfhigiegihgifheiigigheeeieieeegifehefeegeifighhhgheeehffhefhgeieeefhgfeheiiggiggiggigefehifeeefgeifhghhgigfifhffghgefhgiehieiggifeihfggefeieeehhfeegfgfffghgeehhhhiigffiifiifgiiiifeigfgeiieggeggihefifgegfiifhegeffiihififeiggfhehffihghehifheehfgeegihghhfggieihifigehghgeh
rgfieeihgeffhgggiieigighfghfgfheefihfhfffigffgihffieefhheifgeeggfighiefeehghehfhighfhiihhfgehgiifgiggehiighfefefiegifheffgfffhfgeegiheiiiiefggghefhffeheifffiiefggfeigihhfiefhiffiihiiehfffghgiefgeffffigfihfefhifheehihfgfiigihffiggehghiggefeighgihheieffgeeefiiehfeegieifffhefeiihfehifeiigghfifeiiiffhggieggehfeghifefffiefgeggihfgifehgggiehgeefifhfgfghgiefifegififghhihhggiieefehefeeeeegigihhggiihiifhheihhifhefgegggifhhgghefgfiiggifhhffigfieegihiifhiiehffgghfgeeeheffgeeheeegeefiegegefhhehfgiggiiehfghgheggfiheieefhhgfeegeififhgifighigffegfegggegggehegeffigiffghefghiihfefeieffhefhefhiigfefhgihefhigifhefiegheeihggffhfhhi
rhhhhhfghfhffegegghhgeffiehhffheffeiehheiffehehfifihhgehghfefiggfghhhgegefefheghfffgefehiheeghieeheegeeiheegeiehgfghhghiehgeffeifffehfeghgfegfiiifiifgifhfffiiehgiheehiiheiehefhifgehhhhfgefhgiefggghifhighehfhiggihfihgfheffffgffifegifeifeefieieegihfhggihehgfiigifhehgieeeigifgffghffggfggiffhegfieghighfiefeiihgifehigfffiefiigefifeifihigehfighehffeiehhgiefhgheheigiiffiieeiefififfiifhehehfeefgihihieefgeeghffhggihehhiehegihieghihffihffhegiefhiihiigfhihihhigfeegfehhhfehgeieffehehieihighiiiigifggfeeheieeffffffffgffheigghgiiehffehffifhegiifgegfhhefiiegfiihigfffggghghhfgififghfifeifigghfffiiigifeffhhhgfhehhheihfgehiefgfffgheieieigfheffhiieeefgegheheifhfifgeeefiffigg
rihiehihgfeehigiegfgheihegihhhehheiehehghfifgfhgiififeegiieeeheehieiiehgfhehfhheifgfigehfghfghfhghihfgggeehgehieifhhheggighifggegffhhhffefhfiihehhifefefefefhgieeeiieggfeeiifiiigehihheiifeiefgffhggeiegfffgegiieihhgegifeeifggegigghiffeihegifihighieihgiieifefeifehgfegfgffhefiiifihfheeiihigeiheihhgeiihgeeiiihgfihiieeehegefhegfhiheffgfffgeggffghghhghefififfgegeghhiffffgeeefgheeiifieehghiiehegiegegehfehfhfgehfiigffehgfhgeeeieififeeheghhfhgighfhgiiieifeihffghfheffgefffieghhiighhfegehhhiihgghifggfheeheghefghfgfgifeigifgihgeiighegheieheifeeefieeiiifehgfeggegegihgiigfehfefiefifgeiehhhifefefhiigeeifeeihfieiehffehfhfefghfehhfehgggigfgegiihhgfh
rhghieehhfhiiefeihieggegeihegffgfhfehffiifhfhifieeeggeeiieiifghgfiefghggigheifiihffgfhghihggfggigigfggehieehfggihfieffegfiegfifhhfgghggghhhiegfhhgegheiiiiifegfhhhghheffefgeheeighfgheieghhggihfeefegifgeeiifeeeefhhhgeegheieeggeigehegiegehigiiegihfgfhehggheihihhiehhfgeffggggihhgeiehgeegegefgfehfffhhgfheegfeeiffffefhgheeiehghihighhefeeigefhhhiihhehfghhgfeegeffhefgefhifigggifhihfeffhhieffeggfgheefhfigffeeeefhhhiighhiifghehhehhffieeeiegigegeiiifiigegihgifggfhefffhehhifhhhgghefihfgigiihihegfhegheghfeieifiiihhifghhgiihhigiihhihghehggiefhffhghfffegehgfehghhgifgfffhghfeeheghfeihhgfgeifhiighgffegfgehigheefhggggfeegihgigfiggfgigef
rgfigffegheihffheffigeehgifehfgghehhgihfieegihgfihfhfhghheehfiegeeeiieeffgeeehfghieihihheeffeiheieiffiggfgihggefgfeegeegffffefheigheheifihiigeeifgfehfhfhfieigghieeggihgiifgihhgeehehhffieiegffhgfgfhghigfhffgiiigigghffeehhfihehhgfeggifffieghifhfhhifhiihhfgeieigggigeeeigiefghegfihfiieiggifiihhheehggiehifeifgghgiigfhfeghifhiihgififfhgieihhhfeigieefeiffhffgghieighiigeeghieehggiieiiffgiiffggffifhffhfhhgfefhggeghiefheeihgigfhhifiieeggfgefggfifgggeieggifigfefhfghhigiihhfgiehiihihehfiigghieffhfiihfhhiifegffhfhgffefhiefieigeghggiefegghfhiieghhfhiihfgighfieifgfiehfifiehhegiehgeigfhfefighfhhgihgeeffeieghigghghffgiheieiefiieifhigiihffggiff
rhiiffeeiigefeiehhihhfgigffihgefeigghhigghgffhfiheghifhfgfehhgihfggfeheiiieegifffeiefihfeeihgeifgfgieeffiffgggeigifefgffggeghihggggighegfhffefgighgheeeehgghhgeeiggiggfffgihefegfgfiifigefehefeiegeeghheggegeeefifeiiihigfiigifiiffhefegheeehegihiegiihheghihieggggghgeihgihihgghhfiifiieihhhehfgeeheggeihhhiggieehffgefgeggfeeegfhgeggehgegeefgefigeieiggiegieggffhhiehfgghgefhfegifghhegeiiffhghhgihfgfhfeighgiefehgfeffieihihhifihiffiihefghgifhgefiggigiihgghefhigfigifehfhhehgeigghfggeggiegeeiihehhfffhfihighefhegeeiigegfegeffegfghigfieehegfhgeegiefighffeiiffeefeggfgifihghfgeeheiiiigfifeeehgheiffhgihffhiehieieieiffiiifiiihiefefefifgigigiihieiifghe
rhfggegfhehieieihifihehighhffgfihgheeeihegggiifgeeghgggihgefgheefegfefigfheeihiiehihfigffegehegieeghhhgihifghffhihhggfeehefhehegegeifehiigighghiefigiihiifhifhigefhhfhhfegeefeeggiihhihegfffieefiheefehiiiieifgheiifegfhegiieigiigfggefffhggiffeeehfiifiheeefgieefiihfhifgfehigffegefefggfghfgeheiihggihieieehffieieeeigigggfiehhffhighhggeihfhgfgihiigehigihigifeiggggfghfeiiihfhfgiihgeghfiegggfiiefhgfiifhhffggehheffeigigfhiggfieiigehehgfffefffigiiihhfihghgeggiffighiffgiifegeefiiiighgifigehfighfgigiifeefgefhfgggigifeeheefiifgghihgghgfeiieegighfhffefhghegfgfiifffiegfiihffgefhehfefieifihieghhffiffehehfhggfegfhehiggffgeheefhheffgifgffiehfififihhiifffihhgfggh
rhfighgeggehigiefhfgggifgiifffifggeffefegifffeiieeihghifiehegihfffiifegefhigehifehfihghggfefgegeffgiiieegieiifeiffhiefhhieihfifighihgifiehhfifegieheifheiiieeeihehhgiihighghigeiehffgfffegfhigfihffgfiiehffiffefgfiiiegehehigfigggeeiffigiheefhiggeihgihiigighffhfigggfgffghghhgehfhhghghhfghhhffihfffegeifggifhighgfggighhehigehghefhifgeeefgehfhgegifieeghifeiehifffiffgfeffeifgiigfeghigiehhffeiefffihifigfhhihihfggffigigegfgfhhgiegeffgeggigiiehffighheeghhifhhghfggifgfefhighghfigfiggggehhefgiiiffghihfeghhghgfehgegiiggeefgiegghiehihhghhffeihffehheheehfgiiffihhggfefffiihhgigeeeeegghffggeefhhigfffgiefhfeieefegfgfiehhghhihheeihhhhfihggigifigghhiihiffegihigehghhhehgggffeehhiiihghffhigihfihighigfgifhhf
rihfeggegfhhfiggeifhhfgihefefehefhfhfihegfeefghffiffeefffihifhfgfheiieihifheihhgeifggihhefigiffhfiggiieheeefihfieifghggeehggiieghiiihiefeegffhghiegigiehigeihghhfheegefigegefiheegeihgghiiiehgheehgeeefhgiehhffehhegeieffffihgfigefheghhfhhgifghiigffihgefhhheiheefheihfiheieeififheghigihgehgheifhfeheigeegeihgghiifihhgfegeeiffehhhhieheiffehihgeghieeegiggihhiffiieeegffiffeehgighfihhieeefeigheieeihieiehfgfefeiggigfgghhiiegifheehfgifegiiggifeffgihgihfhhfhefegffeeggihfffhehfhghhfgfeffffhifhegegfgfgfihiihgieegieeihieigiggffghgeiifhigeifieiififegeghehegifegeghgeffgffhhhgiihefgfhehfgegegffiihiefhiggigfhhghiifigieieieiehiifhggghgfgfigefefhifehhfehhehfieiiggheff
rigffiihfggiihgfhefhfhififhhieihiiigeegfeeeihegheiihihihiigfihieieieegheiigifighehgfgfehfifgieeigiihhgeihihifhhffeeeheiffefehffegeefehehgfehfeggggeeiiigfeifffgehghhefiegiehfighhghghgfeiffgiehgefhggggfhefiiighhggggiifggihhieheegeiefgehhfigigggiihegehhhhgefefeegehgghefieegiihhgieiifigheehheeehfigfghfgfefeefefhieiighfghfhfhhiheeeihigeggfhgihiehhghfghggieehhgfehfiegfeefgiefiefihghhigeggegffheeiggfgiiehiheieiiiieffeheegfiehigfhehgieefiggfhggggheiheifiehgfehigifgiihhhefgiiihgeghgiiffiihgigihffhgfhegeghiighfffegggighgigfefggffhiggifhegeiehgffeheifiheehfeggfhiegeieffggifiegfeiefhehhieehigheghffhgehiiiefhgfigighggiihiighfffgefieiefefghehgggfgiffiffehffiifiegfghggfi
rhfggefihfgfghiifegeihggfhifffiefeeigfegigihehghfgeeggihfhfigefhgfieefgihhheggheiieghggfeigifieigifghhifiiihfihheegigigeeeiiiihffiffigghfhfihfghgfiifgfhgfghggfefgffiffgiegiffhhhgefifihiififhieghhgiifefhehehhhghiigeghifghfgehehgfiiffghighigfefggifehghhhghgihfehehfeggiefghfeeeigfeifheeiiigefgfihfhgeiiiieeehigfihgehiighheihfefiiffeefighieghfigefgiegieghheigfehieegfgeheefffeigeeigeifeehigffgehghefehfefefgihgfgffiigighheegeeieegfhihefgieghhgiefeigigeiigfehggeehfhegeiihghgheheieihgheffefhihegefggffifeghegheheffiffehhfhheiggeefhhegfgghfhifhgehihegiggiihfhefifgehhigfhegifeiifhieihghifighhgieighhgfhgfhhfiiiifihifffifehiggfhgfiigghheifghgfifefehgfigf
regifghgfigiggfhfhghehggfgghhgheigfhiigfeigiihhgieefegegfggefegfihiiihgiefhifffehhffhfhiigfeehhihieghghheiigggghgfiegiehffffgffeffhffhfhggeeihhfigghfigigefifieigeeehfifhihiifhhegihfhgeheeifgififfgegehihehfhifehihfihfieehifihhghhehhiieigheiehehfiggfgeighhgheehgfghgihihhehifggefgheggggggfegighhfehfgffgfehehffgigiiffhhihhihhgffeghheegffgfgfhheiihgeigegfheeffhefffgegheegfeghiifhieeiihegifegggehifgifghiiggefehehfgiigfhhgggiheefgfifiegfggeiheiigihieieifghfeeigfhfghefghfihhhgfggghfigeghhghhfghifgegfeeehiiggfiffhffeeihiihghiiehfiifggfffheiifhgiiifeegfheegfggghgeeifhgfhhggfehgfeififeihieggigfihggffegihihegefighieeehfhgegihigefffghhggfgfhefehgeegegeiieihihhefgiiefhhegfhhihef
riighehgegeihffihhfefihgffgfeehgihfieiggiihggifggggfigeeigiigghigihgfgiegggfieihefiififefeffeeegfhgghfigffheigeifeegifihieifgfhffehiihfefggeigfgifffegiiheegfehghiigigieihhfeihefgffiggiigieigighefghghgefeheiehhhiiehfieefgigfhhhehehehffhighggfifhgiieiegiihgihigfeeffhieggeieighhggehigiehhehhifhigigfgiegeehehfiggghfgffefgeehhgfeiigfeffeihfggefefeigffeegeiggggiffefghihgehigifhieehighfhihgffheihfgigghieigefgfhefgggegfieeghefiheefhhehgiehggiihffeiiihffgifeeffegfheiffefeigiiffgegfehggiegefeefffhhiihgeieihfgehihhggeggigfeighegffffifeihfgefeeeeigefgfehhgggiiefggeiifieeiggfigfhiieegefigheheffghggffifghefggifhhhigigfhggigegeiiigge
rffifgfffiigeeiighiiehggeihfefeeigfefehhihgfefehigifehfhiiiigegfihgeegeeeghfiifeheieiehefegigiehiihegigifeegfhefiigefgeiighfhfieeegiifigffgeeghfheffhheghifheghggeihhhfgfhgfgegehefhfhgigegihhigehfihifiiehhggheefefihgihiehiifegifgeggfigifiiiieiefigghihfegigghhieghffegeefiihegeefgeeghfeheihihihggegegiffighhgeifegffefieeifeeeghegegfhegeeeifghhiiifeefgehggeggeigighfghfihiffhggiegegfggeiiggihfehiheefihfhffehehgggeifefehefhhffeffeghehfffhfgfefhefieifefgiihgiifigiigggieehigiiggfefgegefieiheeeiifhffihfggiiihfehegfigghhhgehgfieigfffhheiiiifihfifehhifghhggiggffiggigeegfiehihgeheiiihiggfiifgfefefegfiieigegfghfhigfigigfeheheffhhhih
rgggfiggfefeihheeihhehheiffgegihifgfeiehifhfggfgfihhhffieihefgefegigiifehifehhigigeifhehhihiheeiifhhhiihfghigifggihegihehhghhiiifhhfiiiefieihhhggfgggeigeffefeegeeeeiiegegfhfffeeegghgehefifhiefiefefhgfhfgighfgefehegiehhghigieeeeffihigeeeefigiffihgghgigfhhhefeggfghiihfifehhiigihiheeghfgffhhegegeifeegigfghgihffhhhggfiehhiegfhhgfhifgfgieffegihhieeffgffhfiifghhggigfhhhiihiehgeeifffghgeghgfgehifgeifhhghghffhfefeiehfegighhghhefeiifefiiihfiihgiigiehhgeheeieegheffggefiegeehhfgeheefifeiffghhgeihgheiifhehheffgifhhefefgfegiihhiehefhheefhegfgiiggfhgegeeeighifegfgefieggggfgfeieghiggiigefeihhhfefhihghfiiegeigiihfgggfiiihigiegehhhfffgff
rehhigghefgghgfigeffhehhhiiieigiiegeifhiehgeeeiihehheffhghihggihgfhgighiegigehhhefheeieggegfgfifiheigihgfefhhifihffhfggeieghhfihigiffgeighhhefihhehfigfeihhhgehfggeefgffhffheeheghfieiigheeeeehiieieeghhiihffhfffiehhfehfgehgighfhfffifgffhiifeeeefhgfgeigihhfgggeehiggghggehieeehhiegffgefegeiieeigihiiehiehgeeehfehgheheggeghfighhgigghgihiihfiiigfgifggheffheehegggfgfeegieifihhhgeiegegefegiegfgfegeeiggehhfhhffhhhgheiigfegegfgihifhfheghfeiefghigfffgheheggiifghggghgiffiefhefiigfgiiggggfffgegehfhggfehiffigfefighhgggiiegfffhfifhfefeighegfeeeihfhfhiefgfieeeehehefhifiieefefhfifgifgeeeiggfghifhefhhgiehhfffgeiffghgi
rehgegfhfifhhfgehghfefiiheeeheiihgfhihfeiifghhhhghfegefeggggifggiegeeehegigeiehhfihhfghhffheieehegfheihgeegihggfhhiieiihgihgieggeheeiegigfheehfhhgiegehfefhfifhifeffgheeffgfiffghgggggighgfiefhggieiiefgfiegeffheefhggghfhggehfigfeihgfefgifeffffiiffhihifgfiheifghiiifghfeiigegffhefgeefifgihfeffighhefieehggefefhghhgiifghiehegihegehheffehihfefhefggehfhefhgeggeegfheggegheheffgifiiieiiigiiffghihgieffiffhhifehggiiihhhggehfggegffiighgefeihgigfhffhgfgffegeiggghfhggggeihhgghegifefeghfeggfefieeieggigfeheghfegigfigffghehehihhfhghigfiegihefgihhiefeiegeeeiefgeegegiiiheihfggegfgfhgfgghehifhiheffihgihggefggehffieifihhhifheehgheeeieggeeiififgefiifggfhiihf
rigiiiifeihgiiieeeefhigfhiiheehhefgfgigihgighheieggehighehfhiffiifegehheggifgieihieheifggieffigegeiiehigghheehiegfiieggegifeefggfghfgghfhghhghhgfifgghiiegfehheighgifhhfefigfifhihgfhfgehhfihfeffhgifeehgighfihgieeihgeigfheihfghigffgieigfehiiggifgfhfeffegeieeeggfifgeeegeifgheffhighhifefeefeiehfigffgigieighgefihggihggheeeifeeghghghehhgfhffgefiigggfgggifeiggifgiiegighhegefeigehifghehgegfiigghhieghfghegfehigheigfiehghffiheghiiegeehegihheghfffghfggihhehfgfgghgiheghfefgiihhggfiiheghfefhhigfhgeeiefffeegehegffhffeggghheiegiiiieihhghifiihhhigifihhigfihihheigfheigfeigggeegifefeeeiiigheeh
riefhgfghffeefheeiieefgeefeiiggefgffiiiehgghheieeegefehffeghgihhffehhihffeigheieeggfieieeghgfhheghheihfgegfehfeeehgiehifgeeiehfihiiiiggieegefgefeigfhiieffffgghehggigffgfhiheifhiifieeffhhiegghfgegifhhgfgggfiggehfgehhhhgiegghigfheifgfheeffgiheeeeeeehiiiffggeheeehefhehghefhgheiieiiiihhgheehhehfgfgiiigfggeegffgfhighgffgfggigffihfeieifhfheheefhihfhfeehieiffegihehiffigiieiffiefhhhefhifgegiehhehifihehifefifhhfghfefghehgieeieeehfhhieffhhefhfefegggeigghgieiieggfhgfiefigigfghfigegfhiggfiggiieeiihfffeifeehhhihhffhhefiihhiihfiieefhggigiihgifgggfeegfieehfegegighgeggifhgegegeehgegiiifefhghehheeegiiehgegihgihgifhfeifhieighggegg
refgeehgehgffifggieheeigifghfgehiggiieifhfhggffiehigihieehifgffiehhefiffeihgeghgegifhegehhhfiigeiegggeiggigifeggefheggegghhiiefhhhfehgieffehiigfegfigfgfigeeefhhffeehfgeeiefhigfhheefgggeigefgegigighiiehifieheiheffhhheegefeeeigghgfhhfiieeeeieheihfihfghighfhghfiififffhhhiihifiggieefhfehheghffeefhfiffggeeffgeffehgegieeigeefegihehefeifgfeifheifiihhgegifeehgighiiiihhiihhhfigiehhieefghfggiiiihhhehfihfghihgifgieefhgeefgfghghfehiiiighigihhefgefhhheefghieeghhgeifffifehihhggehhfhhfefgfhihggeifheegheheifghihfefehhfeffeihifihfehihhgeiehhifiiifeeieffghfiffghhegfefighgghehifeiffgegfhieigigeffhgigfhieffeghgififffifgefifeihihghehfg
reieeghhfggiehhghehggegeieghggifgigihggfiieeeeghhggegiggffefhfgggifegffhghhgigggigigfhfeihhiiehggiifefiefhgeegigihfgfgigegfieihgfhhhfihggheegiihhegfggiifgehiieeieheeigiggffieiiefeiefhgfieeeheieefgihghhefifehhieeigefhfihfgegighgiifiiffhiffeefeeeeheiieeheehhhggihfhfgfffifhfhefhfgieggiegiegfggieeeeihhhifigihhegggfihhhghfhghieegeieehghifggiifigeeehiegghieeiegfgifefeihiiiigehghefiehfiihffhhgggfgifiigeefgffefgheghfhgiieighggfihiegfeihhgiehhhhffiiehffeefggghefiigfigfhifggfehggeeghfghgfffehgfhiiiifihifefifehheefheigfghhfeffgfgfifihhiiigggegiffiheheihfieghhfighhgfeggiiiehhhfhfghiffeghefffeeifhghgigheihiheifigege
rffihggfehhhhgfeieeiehhheiiihehiheehggiigigegegffgehhffhggefihgihgihiiggegigggeefhhiffhhfhfghhgggfeggifefggfiefhhggihgiigfgfffeiighiffiehffhfihffeeeeefiheeifgehihghifehihhfgfifhehegieeggfhegffeefeffefihiifheiehegieghgfiihghhhieifeegefffehfehheehihgegihegihfigigegghhfhggfgefgegfihhehhgghfihefegehhfigeeighggehiehiiiifgeegehghifheeefgihgfhgfiegeihigefeeghgggegegghifhhehhhihgegeffhhfhgegfihhfeeighegehefehhegihigheeegghgghheeeiieffeggegfgegffiiffgihghhffhfhigheifihhgihgffegefhigigeghigfgfihheihhigegffhfffgiggeiggihfffigihgeheigeihigieehfhggieffeegfifgihgieiffhiggeieiehfiihheihiggegiefhfeeieifeeeefgeiiihggiefhiiehiggei
rgighgieiffgfffgfefgehefghehgiihheefhfgggefehiefifhfffhefeihiefggiegeiehgheeeeiigihhehfhhefieehifegheifgggigieifeiggghfgeihgfffghhfhgigehiihiefiihghheghieefhiegghgehegffhfeihgehfiiffieiehgiffhiihgfgfgfiieifehgfihehfihfhiggeghhfihghigiiffffeeefeiifieifehfgffegiheeggieehgehihehgfeegfefiiggieiigififgiifgieeifegheiigeehhiiehighgiffheigfehghhifehggiieihiigehgeghfhefehheefhiihgfghgigefhifghfffeihfgffgfghehfeffhhehhfheeghhieheefgggeefhhifeeieeehfhifhfiiefgfifefhghggfffhieifeggffhfheeehehgfiefhihfggifhieigiihhgihighhgigeehfhigfffeiigfeffiifieihgihfhffhieihigfeehfgifhehifgfggfghggifhehgeiihiifghfefhegggiigghefffiihghhhgfiiefgfiffihhiieffhhefiig
rgieggeegieehhiieieehiefhfihieigihiffiheefeiighffhgfeggeehhehigihhgfhehhfhihehihhffhfehfhhfhheghiifigiieiihgihegiiheihihgehghfgighhfigghheegeheeghgfhffeieighhfgfifehhfgefifffhhfegegegfggeggfefgffgfiifhfiiggeihiigifegeeihhfigigieifigghffhfefefegeeiegeegiffhfefehggeehihgififffhhehghffgiggeeheheifheehgfgfiehgfehhhfggeieffehghhehhehgheeehhgifgifhfiihfgffehfehieeegiehiehhiifffiieeihgffeihehifeieigheggfihgeihffffihghhfhffgggighhhigggfefhgfehgfehehhffihehgfheiffghheeiigffheihhihigfeehigegefefeeefefgeiehgihehffgighgfgieihgfhghfifhffeihiieigigffgfifeffhhigggefefehfihffighefefhfgghhegfifhhhfhifgfheiiffghhiihgfgfigeghh
reffggfefihfhgefghfheefhiiegigeihiggfeggifeiegfifghhiifihfhiiheiggfeehgffefgggfhfiffeegefefgeffhfgehhhiieehgiefffigifiihfhgfiifgfgefgefggiigfgheigieheeihheegiiefggegegiihhhffegefihfeggeeiifefgghgieffgiiegheihfigiffhfhigiehhgigiihgfhhhefegghffeiiegeeiigieihgeefghffghiiehhhiegieiieeegegieeiehiifghihggggghggihhheifefeifeegefhhefhiegheifihfigfehigiehegeihggfgefhhefhghiefiggfgghfihgfhffefheffhiieifefffefehhihghfieigfghfggeghiiheifhgffhfgiiihgehhgiehfiefghgfhghigggighhgigefihehigfgghefggigfigigfeiehhfgehfheieghgffhgegihihghehhgefggehgffgghfgfeifgfhfigghgggefghifhghfeeiiihgighhfhggfifefhfegfiighghheiifhfegihhegfhfghegfefhfgeige
rgiggeeeeigehghfefehfiehgeieghighhighfgehighfgififgggifiiefffeeihgfhehhhhhffegefhgiefegeghhhiegiihheiheifgeifeeggigeifgieegfheegeegffeeggffhfggffehhhfghhfffhiifihgehhegifhgeeeigiifghfeihgeghfhhhfgfffgifgggiffhggeefhffefeeghhhfgigfiigffieihfhghhhfffhhfhggiehhghifigighiffgfifiiggfheghefgggfieeeiiihhfffhgeffgihhifgghieefhehhgihighghigegihiehiifffighgefieghieghefhiihfhhghifgeeegiiieeegghgihgiiffhfihggffeefefeggfigffgeehhhegffhgefiieeegigeffghegigiiigggggeeehhhigegihhihiefgfegeihihhihefhgihgffhhehfihggfeefieegffggfgiffeeihfihhiiegigiigeeihigfgggfhhheeiihhgggiifhfeiehffheeigghighihihgghffgeehehffe
righihihghhhffgfgeeeefhgiihfgiheeehiegihhiffefihhieighfhifeigeiggghhgihghihfggffhfegfhfhehgghfggegeggefgeihihiehgeffigifgfegigiigeifeehggigeegfeegffiggheieiiieffigiggfifefgegggiehegghgfhhghhhieeeghiffiiefggehihifgiefehheigfiighiffhgehfiffhggifiefgeghehggifighehfihiehggheighegfehhhehegghhifegieffefhgiehhhfeefeeifffehiihhiggiehgfiigieeeffgihihfefgiehihghfiiffgegeegegehfiieiefeggfghfefgfefieffehfgehhfhgiiigeifhfiihgiiheehfieggggegfefgefigeeefffghefhgiffhhhehggeehggheheehghiheefihehgfhefhefefheehhefegggehhhhiggfgiheffegigehhehhgiffhhhghfgihifeefgiigfiefihhghghihgeffhehhheffggeffhgghefheefiifghhffffifffgiffegheggeifheffigiiggghfhegfhgfihhghhffheihgefgefhge
reffehfffhifhiegifeifigffiefghfgegiegehhhhihifgigghfhhggigefgfhghiggiefieghgigfhgfiefhiegefifghgheihhgieeigfgeiigffhfffihiefhihgfegigfgihieeeefihiiigeeeefghegefgghgfefifgffiigihghfgihiggeieggigefegeiiigehheifggifhefeghiiegfiiiigihfhghheegiggeigegheeifghggegfghgeifeiifihefeiehheheefheigehhifgfgiighgfhgieiihgehhgehifggiehgeeeffgfheieifiegigeiiggfhihiffghhgiifegffeehigeheggfefgeggeffgiifffgfhhhhehegeeigefihhefheiiieeeffghgghggfgfhhfeegehggfgiefhfgeieiggfgeeegfhgiighfhheieigighhiihhghifhfggieeifiiggggiehffefifeiiigefefhehhgiefhifhieegffegghihhifeehghhghefeifggifgfeeigiffhefghfifeggghihhhgeefhieffieehffhiehfeffihfghfhhheigieggghgiffgieeihgfgfihfiffhefiigifihi
rihfeggggihieehfefffgfheeghfeiegheeeiieghhhhefgeihhffiiffgiihffghhihgighiehfgefheggfffiihihhefeffgifhfiehgfgehfeghghifiighgefefhigigeeghiifiigehgiffgggeeieiffgeehheeghihfiiefgggeeihgieiiieghfghfghehhifihgehfghgfffhgeghhggfieiiiiiihehiieghigeeihehfhfigeghhfgighhhffgghfeghggifhighhhehgehhegeheefhiifeihfgheehgihegeeieiiefffggggffiihiegggigiheigeghhfghgeifiiifgegeiiiifhfhhiieffhigeeghfhgeiehigeffeeeeheigiifhegegggeihhighighehfeefghffhhhifhfhefhhgffhhfhgihgfegighhfffigiiegffeieheiigghheffeefghihfgihfhfegihfefiighfffhihhiigeehfggghheeeihfieeeihfegiieiffgfhgieiheiheieihifegefhheegefehehfghhghhhgeegihhgeehhffhheefhhgffifihgigieghfghiifghiehigieeigihigigiifefeegiifigeifggeehggheh
rfifehefefgefeeghfifeghiiehgehihihfffgehegififfeggfieihfgfegiigeiiihhifhhefehigeghiiieehhheegeegifeigfghieeiegggghffhhggfigfiiheheiehheiieififhfifeefgieffffgfhehhhhfehgfiheghihfihhfgeiehgeifgiiggghggffgfefeiifiiiiiifgffhgfihhghhfgihihegeiggfffefgheiefhheifiigffffeifeehgiiheffeigffhfieehefefgfgefhehhggggieiiehefhgfhifhfffegegeiieihigfiggeieffeeihfeiiheggfiegfefieeefeififigfffehhfifhfffhfhihgheiffieefgfhehgehehgigfghihihfffggieggeefihfgegghefiigfhhfgfgeefgigihiiihefggefgehfggiefeggegififefiggigieggehigfhiigiehhiegifgeiefhieeieghehgefeigefgefieiefhgghheiihefehiefigheiefiehhegeiggfgeiffgghiegehhiih
rhigigeigiihhfgeiffgeegiffffieghfigefiehhigfhihigihgefhhgefggighhiiihiihehfeiiifehegfighfigheigeeffegeeifheegfiefiggeehffeefgghieieiigegfgheigeghegigegegghiffihefifegifigiefihffggegeefihfhigffehhgegiifhgiieehihhheiiiiggfifgfieifieggeififigeghhighhhgfiiigeeiffifhhheghffggeegiiggheeiifffffeigfhegegefeieeghfhefhghhheiefgefihfgeffgggieifhfiegehehfgghiehgfieeifgiefheefehgfggfheggehfgfehgeiifhhiihiiiehfheiieiheiffheiggihfhffgeihfhefehifiighiifhgfgfihigfgieihifgfgigfefhgfihhiffhgeggeefiffigghefgghifhiiggiiefghhfghghieiiifgihgihfgfgfegffggfeeggfffehgigigiifhigggghiiffhegihfhihfififfeeeffeeeggggfhfigfffihfehheighgihgeiigifigfgeggihegehieh
rgghfeegheggiighefiihfhhiiefifghefhfgeegegeghieegfgggeghieeffiigegeiifgeeiiieffighffiifeiffgggieieifhffhggighffgfeeeifhehiggiigefgfieighfggfefeffeiggggghfigeghfffgffgfgifffgfieghgigfhhgggefghgiffehiiieegggfgfgfeighiggggifghehiehiegigiiihheeegfigffeeeffhiihffgefffihgeffhhheiihgheghhfhiegeffgeiifgffeiihigeigggiegghffhegfhifgeggifihghhieghgfgihigihgfgiifegiefhheheefgeeeefeiefgfiihfhgeffffiifegfgfeeffeefigihhihfghfifiegiihfigeegeheeeheghehihffigfeifeehefgifigiiiiehfihggggihhhfiiefihfggfifeegiiiihigghfiiehhhiiheifhfhfgffgihihggigihhegeegifiifhfgifhihghiggiffiheiihfihfeeeehehgfifeieiegheheiighhefifiehfgfheiefggh
rihhfgefgiefihghheiehhgifgeheifhhigihgfgihiegfegfggfgighhhghieghifihegefffiegfieeffggiheieeeeihfgefeiifeeggeffgfifffgihhffhheiihihhhgffifeigiiehefggeeeffeiiifihiiihggghgigfhhgefiigffeefeifhhfgiggfifeieigegieihiheehegefehfhgefffehhfhhiighfhihfihgfggiihehgeiihfgiegiihfieehhfihhghhfiffgehhiigfhgfghiegiehiigeigeghieggfgeghifhfggifhihegiifiihihiiihhgeeffegiffghheghefgggifhhiiieggiihfehegfgiigfhefiihihfgghhhegfghieiiefeiggfhehfghefhheghefiggfehffihifhfhfifehheefehhhghihehighgiieheegfghgifgifefghiihegeehgeehigiehffeieihieiiffihgihfifihffifihfifiigfeeeggfehghhfiigeigfghghfeggfheihgfgighefhhiggfihfhfigiheighgghhgiefiefeiiehihhgfhehegfehhiehihehfhifegefgfe
rgfefigiifegiehehgeeghigefigghhegighhiiehiigggigfgeeeiggghefheffeefegfgegfifeiifhigeefhggeheeghegghieefgifiigehgiegihghggheheheegefgfheeffiefgggifheifghigfghigeiheghggfhiffheheghghiifeieiifffegfhghgfhfgfgefgiiiieeeffgeehigfheigfhhighfihgfgggfigheihhifihiiiefeieffhiehghgfeegghehhhheihfhigffffegfiiihgffgfifgieeiegheihefihihhhihgfhfgeefifheheiehifighghhffgihghieifgiihgghhegheffiefhigieieehhieghhhgfegeegififghhffghgeigeiggfieiighffegeihiggifegehieihheeegfefeifgfhihhihgfgegefgfhiefigffiheiefhhgifehiieieiihhefggegehhigeegiiefhfhihgigiehihehfhheefhfeffiegffheighhhgeheihegiegieiefffefhigiggeigeiieifghgiiggfehhhifhgihgegfgiigheehgghfhgegeeehfgiiieihegeg
rhigffgfhiiigggeiigheiiefeffgefgheiegfhgghifgfhfeffhgfeehfgeihigfhiefhiehhgefefiheghfiefeghfhhiffeheegehhghfegehgihehiffhfgfihifighfghegfehhgfhfeghfhfifhfeggiehihihgieeehhiihhgefehhigfggeihfigfighegeeheggieffffefeiiefefihfiiefeefehifefeeefhfheigiiefegifffhiffeffiifhfhhhhiheeheiehggeehfieggeehgefeffefifgeggghggeegfehggeihfggheiffihggggfifehighfefeghghhegghgfehgefegehfihihhefhhhhhffififgheiigigihghfhhehfgeggheffhgegeihehgeiiighihgeeehheegfgeifgiehhheheegigihhgeheggheighihgegieggfhhfeehgefhihffgefggiefgehiihihfgfhighiifgefhghfhhhghffeihiighfiifhfiiggfhhggfheiheeffeeieffeggiehhfgghfefhgeheihefihiiefgffefggfeiehgfefief
rgegegifghggiefeggiieeeeeegefhgihifefggieiffighhfhefeeieehghfegiifghhiiieggggfeefeiffhfhfeiighfgihghihiigffiiieeiffgiihgeihggifgiegehfefihgiiiiiehhfiheigiieegighfghgifhefgieiehiiihigegfiihhhehieghiefihfffgfifeeiggiieeeiihfgiffihigighehegifiehfiggeeifiggfhfegfigefehghgffffiefiihiiiehhhgfhfggheffehigiehhgeifeigfhgihehefegheiffiiefihggeghhigeegggeieeeeefhigifggghgfggieeeiehfiefeeifhigfefgfhffhhgeghggifiggeiffieigfhefieehffhehiggfghhhggffegeghehfggeggeihifhhegfggfhifigfheifgiiifigeehhfiifihgiffigghehheifgiehgighfehgfgehhhiffhhhhehfghgfiiefegigeefhgifggeheeihhifigfhegieieeeigeeeeiiihfhhgghehgg
rghghhgegieihigeegefhegfffefifhhhiehgiifhfeffgghfiiefhhigfffgffeehighhehffggefgighfegiefghiiieeghffhfgggefgegiffhgfgihhffgfhghegfffieefefeheeifeiigehehfifihiieghffhfefieifeeiefiifiieeefehhffefgigfihgiiigihifiigheiifffffggffggheffghehefiighhggfffiigeefeiggfeihhfheghgfifieehfgiehhefegeiihehhegfhfiegfhhfigghhifgiggiifhhhihfheiifffgifhhhghgfgihihgffefgfieiffhhgfghhfihhgegifeffgieieiffighefhiiegghffgihiegffeheeigieieeigfgfgiiehghghhhigighgehfgeihgiieghfihgffeihhefigggeigfgfhfeegfgfeifhhifhififihhfefeigiheheggfeiffeiifeeefihegghehefgeighifefffgihgieiighefeghiihifefeifeeghieehiiiifefiegfegeiegeehhieegihfiefegfihfhigee
rgehheefheiieffffiffffhghfefgihhhhfgfhhihihiegeffhiigehghihfehiigghhehihiiiffgieghiihehifhefgfgfhgfhgehffhgeehggihiihghihhfeiehghigeffiifhihgfefefeefieiihfieihhehfffeeghgeghghefihiehhihfeheiieighegeiggfghhehfffeffehffhefifhhhfhgggffhhiiiegghhfeeifgiheiiiggghifgfhhfiieifhhffegehiigihhehhehifeefegfiighieieghgfigefghfghhehehehhifhiifefghihegggghgggifegigefhhfiheefggiehgfefeiggfiiiffeffgifhheeffghghffffhfeefhfeegheeiiigiegiffiihgggeegfggieeigiieehiififeegfihghgihgfgiefgehifgifffhieifeihgigegfififfigefefghhffiigfehhfhefefehefghiheiihhihfeiefhfhhfeighfhheeiihfeheihheffggfhgigffigeghegeehghighgfigie
rifegegiiegegggfgffgihgfeghifgeghfifhfeggiiifhgeififihggeghgihfeiefefhiegigegigiefegiifffihgifgefeeeheggiighffghggehffeigegfgfgeggggieghifighffeiffgehggeffgihehggfgghgifffihigihhfhheghhehhhhfhgieeigfffieiigeggfgeiffggieggiefhgfegifhihiehiigghhfiffheffieheffifheifigefgfgeheeggfhefihggggehhhfiggefigfeffegfgfieheggifffhigfgfeffheeiggggfeeiiegfifeegihhffegffegfhhegfhefhifehggeeggihfefhieefghfeihfghegifihefeeigfieheiiefhiiiehhhghhiefieieeffihgefefhegfgfeggeefffffggfhifehehegfeefhggefeieefffgiggfeehfgfighffiigifefieeigffifeheiigggehfghehiihhghigeffgeihheghffghhghggfggfhefeehgeifefehiggghhghiihfheefhhhfhiihffihgfiiifhggehfgfiehfhffgeifiiigeh
rgggffhieggheieiieghghgiehhiihegeiifeegggifhhhiehgegggfgeggfeiigeeheggieieegeiifhieffiehhieehighfgeiieihgfhegghhihieiiigiigiefefhggeihhiihighgeggfggghfhifeigghhiehfiheegiiehiiggfigeheifgfhifhfffggeieihifhfeehhggegeehghhiigegeigghgfhhihiihehgghiieggefhfhhieihhigfiefggggieehfihhgefehgehheifhheeihhfeehihegfeeiigefghfghffegfgigegeeiifgffhhheghghegfefhhhggefifeehffgighihhiefififgiggigifhghiieifffgeffhehffgieehfhhfeiieggfhgfieghhiehfeiggeegffgigehiegfiffegfiffefefffiegiihgiggieffeiefeghiiieigehegigfegfgfhfgegeeghhieghfhfhhhfeeghhgeifhihegggifehfhgfigiiehefeiiiffhefhehegefffigffegiegfeiieihigfeighieeihfeihggfiiefhifhhgiihhehhehgehfhgfigehhgef
rhheghhiigghehfefeggihfeihhefeegeeggihheghhgffigiiihgeehhehgghihfgegeiggghghffgegieiiheehhgfihieefggefgiififgghefifgghigifhheiegfighgihgeghifffggeefhiighigeiiigefghegegeeihheffghgfiheiheigiifeehhhfegheffhiiffgfiiighgghffighfhhffhiihggihgeefhfehefggiffeefhheeihfeiehhieefhigiieghihigheifeihgifghgehfgigfefgffiihgfeghieeefgegeeigigeeihehghifigegeieiifgeegheiieegeehegfgeheggeigfegehihehhfighefheeeefggigiiiifefegifeifhgffghgeeigefihghgfgfeigeghggeehifigihieegghheegeifhifhfhfeghfeeifgighfgeheffghfhiiieghefheifgffihghihgfhigiheggggfgfiegeeifieihffhefehefffefighhehfgefgggefiegefegehfeighieihfg
riffhhgeeigfhiefffefifheefehfhfeiifggeigigeefffiihgheeegieggfhgeifhffgehifehihghfehhghfhfeegfegeheifhiiigigfggffiiiheggfhgefigfgheihgeiigifffiggfgefigiigiehhifhfgfhifhfefhheeehieffeeegffeeghhhggggegeghheefgfgighihihfgfhiiigifffhhfehggfhiggeifeiehhgifhfegehihfgihhfgiffhiiggiigigffhigfhiigghghhggffeifihefgieifhegighhhieeiihhfeiifhegifffgheigehfihfgggiihegeghfehgegehfgfhheffigiegiifehhiefgfhgehgefhhehheiefgfgighggfhfhieegheheffeffhiiefeihieghgefehefiefigifegffifhefiggiggiegifgghfhhighehhgfgfhehfffihhfgehfhhegffgeeeeifgghfgeiffgeiehfgiifigeeeggeeiihhifffhfgihiffhihiffeefgefiehhgfhfieighghhf
rfifhegifgieiffeffhhgifhifgghgefigegggheeiefefghggiffefefhiffgegieffifhfeihggeggifefggheeeihgigffhieiggfhgefghehieihgefeeeegfheghiiehffihiegggfhggigigiigiheihihihheefieefeihhegeiiehefegegfeffgififeeiefigfgghiheifehhghefehiighhfhhehfigghihgihighgehggfgegieeihhehififfgfiiggeeggegiehigfhghgegieffigghefeheehgheeggehehhggheiggghgigegeeeefeefggeegiehgieeffhiehhifhhffhiieieefeeefghfhehgffffgihhiffgggfihhiiffgiheegfiiiggfihfiiihgfeefiigeeigfghgfffgeefheiiiifihgehefieffiihfieeehighffhggehhihhfgegfeihiefhiheffihigiegiggghfgehhgfehiehgeieeefffhfghhfgefefhefhehieiffgfggheiffgghggeihhffhg
regihhfgfgfigiigeehihffehgehhiggifhgfefgihhfggeighhegfhghhffghffiiegfiihggffigeheeiifigiihgghhegehihgeffiegegihiiiiehffhfhgiiihfgiifihgehfegghfhhghhefhfeeefgegfifhefgeifgfefeifgifefefhgiiiffffifhfefghhfiffegeiieefieheihfefggihhfieegffiifhgegghehhihhieegigfiggheifhegefegiefgeegieeeghgigehghggiegegghgigiffehifhfgfiieigefeghfighfegfffeihegiiheffgghfihgfheegghiigefigeieehiehgfefifhiefgefeeeffghifeggegefgfhehgigehgffehhgeihgghfieheifhhighgfgifggieggeigiighgehieeehhhggfeheiiehieghffhghgfegigiighifegigeegggghgehehhefefiighiheiihifhiiefhgeffefifeigeghgffhfigeghigghiefffieheiieeihiigehehgihfggiggeghgeiifehggehgihiffffeeffhigghhiieghfeefgeffggfieggfghgehhheiffhhefi
regehifiheeggiehheghhhfhggfeegffgefeiifefhihgffgfffiiiihifhfhfhgifhefiegeefifighgeihfffegigghgighiiifeifggehhihfieiffffegegeghifhigfihghggffggghghihfhhiegfeeffegefhfefhhgigfhghiifegffihhiffghheeffggfgfhihfifghehgfffgifheefeehfffehhgfeeiihiihifgegigeiifgehhfeigeifhfhigfefgigfeggiifhghhffghgfeiieggiehghgffhheggfhhiifggeeghefgehifeeeiiggegigeefhfgfhiihhgeiggeffehffhehhhggeehhfgfeigegefigeiehfieeighiehfehgeiiifhfghfegeehhfiihfheegheehhgfigefgfheehggeeehgifhigeheeieeffgehhegheihefegiifeeeeighieggefeghighfefeehhfegeghgiegfhhfheiffhigfehhfeiihefhgefiifhhfgifihgggifeiihgfghgifefghhfihiggffgfhfhihee
riighhgehieffhfiieihggifheeiieiefeiiigiihfgiiihefiiefhighifeiegghfggehhhgegffhiiieehhieiefffhhhfieeefhehfefiheiiefgfeiggeehfhfiiggfeeghhgfhgggfieigeefghfeiihefegggeighfihhhgggghgihehfghehihifegigffheefehfghhegeigheiihehfiihfhheefggigfeeffghffeiighigfgffeefhghfiffhiheeihhgfegeggifffegieeiiiheeihfgifigffefeffhggifghgihfeiiefeigeeeiifgiehgfheeghegefgfgghiheeheghffeihgieegggfgihgfefeiffefghgihhheifgehgiheeeieeghfiggfiheggfhfihgghhheghgehieehefheefifhihigffgiheihhffghgffggffgfhhhifghgfihheiiigihfffeegigieigigeeeghgeehiggeifigighighiiifhfggihihhiiegeefeigffihfhffieehfiehhehffgghfghgiifegeiffggeihheifighiefhheigehgeigggheheheehi
rgggffeefgefiiiiifffhfhifhiihfiiifhggieihegigfefggifhggfghhfeggfifefgegghefeffhfehiegfggieefggiheeggeifefggeffhffggehfgifgfegeigefghghhfhhhfffgghfihgigehefefeehhghegihggfhhghggffgfgeffeifhfhgieegeieghihfhfhfggheiegehfifhgeiehheiiihegfhegfeieeegghgfgffffehffhheehggieefgegiehhhfffeggfhiegeeegeeieigehfeeegehgfihhfgegggfiihighegigighfeehgiffefiiiifhhgihgheeiiifeigffgfefififfhggfefeifghfgighggiiegghhehiifeiheeefeiggiefeighffghfffigfehghhehhgfiiehhgeffiiighiheeiggegfeeiefffgehgfeighhhgfffifhfegfhiheehhffeiihgfgfffihiefhifiifgiggegghehfiiihghihfhhefffehgfigffifegfegggihefggeeeefhgihgfefehieiiigfhghgeffihhgeheigiiigfghif
reegfhfigiiggeigefhhfihghgieegihgefeegeghifhfgehehfhgfefiehiiggiieiiifhhgefhghfhgehffiigfgfegfffffhhgfhehiehiihfffegeighihiffgiehihhhfhfgeffiieefeehfggeghhiehifgiigeiigfgefgehegeeigiigghfehghgfiehefgfhggeehgghhffgfhgffiieghffhffihieggegeeeehffeifieihfigggheefghfgfeiegiegiifghifffgieifeeiefffiegfiihfehgifiiehgfegiiefiifhggigffiffghfiigieeghhigghiheighhigfhegfgiieeehfehehfigfegfehhefeiieeffiggiegifigghfhgihiehifeffeehgiifhfgheggifiiiiihhhihheifhfhfhggfheefeiefffhgfgffegieiehgfgeffggiihhfghgeeehhgfieheggfffiehffghhfhhgffihhgfhiggfeeiifggggeeegiehiheeggfg
rigfegegiehihgfhiihffiggieifghgggeheieihhigfffiggehhigghhgegeiiefigegfieghfhfhehhegihihhhegiiiihhfheigefhifiifhifghfhhighgfefghfehifhfgfeheffheieiffighhifeghefehefffegiheefhhefihghfghghhehhfhihfgifeefgfgefghefghiigfgghgffggihiffffghiifeiiggghhheihihegfhifhiiegggfgigiehiigggfifihfffhfgfehgefiighefeeiifgfheggfgegheffhfiehgeifheghgiifhgihihfgfegffegigggiiifeihehieiggfgifhfgiefefhehgigghegiiieeiihigehiifhefieiigigigfiieieifffeieeieiehiefihfegegfiehieiieeefgfhgfhhhfhigiiefffiegihfgghgihefghihhihfighhhigegfeigehfgfehfeiheeheegfffgeehiegggffgihfehiifegfffihheififfgehigghifgggeghihfhggifgiffhfefegeeeihffgeeigieh
refeieffgiieeffhihefhegfgifiheffggfhegiiifiiigihhiihihiiieehhffefhifgeefhfhheihhiefheeiefieihffifggfeiieeieeiifhighfehhfghgggefeehfeghgighgfghihghigheeghiegefhggfgfiifgihefhefeeheehegfegfgffieghfiighighegeieegegeeehgiiieghegfifhffgfigeefegeegefgihfeeihefeiehgiiigehggehgghihffigifiefigfhgfefgiehhheefggfhgeffifehffgeefefhfihgihgiheighiehfhiihggegheehhhfghehfgefiiihefhfihehgeeiheihhefhhgfeffhfggfhhifegiheihfiefgehehfgghfegiefeheifeieeffegeeeiehefgieeeeiieffehfgegighfgehihhihegeighghgheeehehggefihihehghhighfiiigfigefigigefieefhiieigfgfegiiiegeffghgigiifiifeiefgeehifhihghhfheihegggfihgefgggfii
rfgeeeihighffeefegeefiehgghiiiheeeeggeefgiiefgfgfggghgfeiffegiegfhgeeggghheeefggefffhihheeegfhgefiefhiegeeieihififgiehghehgffihihfgigghghgeigiehghghhghheefheeiehffehihhfhgeihhghfgfheieegeggieegfhghffffhgeheghhiihiehgeefgfhehgefefifgihihfgffhheeeegeheeifgehgheegfifghfegeffhhfefehigeehgeffhfheegiggeieeefefifgiffffheeihfigieihihefgggiegeieghfegiiiieieihffgigegiiifieeiihiefiifeeeeihgefhgffeeefihefeghefeggieeigeegieihegiegfhfiieffhgihffiffhhiefhfgffighfhfiigifeghigihfgifgegefhgiffgfgggggghhgfhghgegffhhieieefffhegghgfgiegfheehigeeiiheigggfhhifhhfeehfeggegehhgieheehfeehffgggeehgehhgeggig
rfgggiegiihifiegfifheieggegigihgggifffhfeieihhhfgefiihgihiheeiiefhhheiighfhhigfigghhegihheeiiefeeieghighhehggihffggfiffhfgieighfhhigefghhfghefiiefeieiifheiggiefgieigigfggihheieifiiefehffgfehiegiigeihhfihffgfehgiieeighgeieiiieeheihhggfeihffiffefhiefheeeifeigeghiefhgfggeffhgffehgffiigfgigiiiehefgiiffigegihiffhehgfgehfheegefihhhgiggiifegggfeiieehghieefeggieehhggghfhhefgfhfgefehgfeghegeegheegigeehheffgfgfgfgghhggheiiggigiffifhiieegifgfehegfhghggehiighehfiffhgfeehggigefghifhhhehiigieegfhhgffghifeeigfhghiehifiegfigihfgfhhieffihfhgehiegghhhghefieeghgefhihiggeiggfegfiifgifgfgfhgefigigihifgieehhgeiiffhggffiiihghg
rigghehghgieehihghfeifiegefhhhfheieefhgfggfiehgihfgggfgigfieffhfeeifhfhgefggiigegigiggeihegihehhfgffefifhfhiggighifffieifgeieeihigfeighiehehfeeffhggiehgiehffgigehifegefheffghghhgehgeghffeieffgihhggheeifffffgihgigeieheggeiehehhifgihfggiehfghffgheifggheheeeihegefghfiefifhgigigifhghhihiiheieiegfehhefgieeeifehghggiheegfeiffihifhgigehigeheehhfhgefhgffiegefhigfifeififgifghfehfeifgggfgihegehfiffhehfggifghgeiigeiiigihhifhgigfggfeeeeffgieeeeigfhfhgghihffieifiegieifihgihefgiihfeghhfheegeieegifihiegiegihgehefhiffffhfefgfhfeiffffeehgfiihgfegfheiefgegihgfffigiegffiiefhiiehghhfeih
rhhefehgigieihgeefgfffgfiegefgfggegigehfgegfhfihifffhiiiifieffghhfiefhiehhiffhgefehfihfhigfeeefhgefehgfhggghgfehfigfghffgiiheghigffhhihgfeehffiheffgfgehgfhihgefhffififigieheihggffhifhhhgihfiffggghiiefhefeigifhefifiifhheiifhgfegeighigfffheiigehfghgehighhegieifggihieehfgieeghffhefigegeeifhegeghhieeihhehegihhihghgiggeheeiiehgeiehhehffhhefiffhgigihihiiihighggeegehhfhihfhgihihehiehefghheheihgffegiefhffeeffffieheeggeeiigeiiieffgfiegggghhefiggfgiieieffhegghheeiighhfgffhgeefgeehefefihhfehighefghihfgiiggfhffiffgfiggehihhgihefiggeiffhegghihigehigeiffgfhfffhehegihhhffeieefieihefgfggihhgihhieghfffggh
rhihiefhiffhifeeifgefgiieiehhiehgfighegihihggeihhfhgfiffehfhghgfifhihhifigefifiegigeeehehifgghhhfihfggghfiigeegiffeffhhieifgiefgffhhhghffghhihheiehfefgehiegffeggegghehfihehfeehghigfheiieiehfigfhifeihfihifeffgfgfhefieheghhgeggfhhgfigffefifefhgfheghfhfifeghghggfeihggeefffgieeigheefheihihggggeghefeeiffgfgghiffigiiiiihihgfeheheghffgiheighheeiiihheihigfehfhhfgiieffefegfeiffihfihehegfegiefggegghegfefggffegihfihiigggefghighhifhiieefihgiehgghghiffhfihfheiffgieffheehgfffhhfghgifhgffifhehieighfghhefehiefghgfihihieifhgfeggieefiihgighfeeiifehffihegighiihhghfhifgeeeghghgeiehggggifgeghhgeheehfgeigggfffggieififgghgiggfiffefegf
rfgfhhgfgieeefihigihhhfggieigeiehffhfheiieifieeeiihhgfefeefihgehhfgfgggfghhhieheiihheeihhgghigfifhfheefeifhefieghfehfghiififefefihfgihieiigfhgefhfgghehihhgiihgehigiiffhfhffhgehegehiiieigihgheeihghfhiigefgifeiefifgfffhgfgffigffhhggiiighieheefeihheffhiefhihiffihefiehgfieffiheiffhifgigeigggfhefifhhhiiefeiffihiigefiiiehfgfiiefehiehhefhggfhgggggefhifigheigeeiifiiifeihihhgegiehghihgihehgeefffgeghghiifgfiegieiiigiegieffeghhihgghffgifehhgihffieeggfgegegghhhhgfifeeiefggeghhheeeifeifehhhfffeigfiegififhhfgifgiefiigiggehfhfehiehgifhhigihffhgfiifhehegiffegffiihhegffffgiiefeiefihgiefhfhggifhefegegehiigfegghfffhgffeefiiee
reeieifiiiehhffehihfgfieiigeiihfihgfehhiiheggfegghiighfhiiieegiigfggeeiiffihgigfiheffhehifhiegegfhgfhhgiififggggeieiiggihghhgihhiefghhigghefeihhefgihfegefegghgfehheiggfhiieehheigggegffhieeiehehgggfgeffegieeifeheehghfhfigfiifhgieifhgfefhhhfhfgeifihigihhheigieiegggeeffhighgfhigiihfhifhfhgeeheihiehghhfeffgiefifegfffigiigigiieefehfhfhiigffiggfihgeeffiehhiiifgfihehhfgfgigffhfgghgeghegfffggeiiefghgfigefhifffegeefhehifigffhefigifhfefgigfgefieiehfhghifieifhhhhghigfhhhifeheeihhehheeffehgihgiehheihheeieeghighiehgeehhhhifehihhiehgghiihfgiehfefhhhfffigeggfggeieihfhhifgffegiiegghhfegfgiiffiffeigiiigge
rfiieeiihgiiifgfefhfgfigeihghffeieiffeefiieieigggghihiffhehhhieifieifgehfgghhieeieigiheheefeigihhigefehiigghhihgieghhgfhhhhigigeeggfgggfifieeegieighifhgfhhhgfhghheeeihgeegeeffeheegfefghieggffeifgfefegfgghfehieehggiigegihhehihheeifggefehfeghggeifgfiiggiigeiegifeheffeiigigifeeeghfhehifgiehfffgigegiffigfefffhhfihggiefhfifgheieghffeehfhfiiiiehgigfeifheighgheigieiffgiifeiefiigigiehggighfeehgiefffhefihgfihehighigggiigegghigfheifggheiifegeiieiiihhfeehgfgfgeffiiigfehheeeegefffffgffeeiegfgeehfiehffhgfhieegffhifihffghefhfffggigheeghhhieegghihigfffgfgeiehgigfeiggeghihhhgggefihifehegghffgehgggggfehihfhgiefeiehfhfifig
rgfigihifefhegfgfihheeggfifgeifihihfhggfiefehhifiifififgeifeegifgiighffhigeigfefgfehgihgeiihieifgheefheefgihefeiegeghhgfihihfhfhhieighehgfihhfgheggigiggefgffffiehhgfehiggieefeefgieihiiiggghefehgggieffiehiheefhfiiehefgiigieggiefigggiihhehehhggiihieehieiggihieggegfigffegeffigegggegiegfihiihihhhfeegfgfhhgehiiggiiffhiffeggfeeifgihigeigiieiighhifgieehggeiggeheehiiehheeifihiiiefighgiegeiffgfhhgghheehffgggffgeeihgifffehgefghiihggfeegigeefigfihfeigfigfiihgeehggiiifhiheehefihiigigffhfggegghffiegheffhffheefffeeifiiiffgfegghgehegihehgheiffffggefffiehggfgfegie
rfeegeggeifieihiiiefeefhegefgigigigieiighgheffihggihiehieegiiiifffhfgiehfieieeghihhhffhfhggggheeiehifhiigiiefheeghihfififeheieghheiiihiheeefheieehehihigiiehegheheiieeieeegfgfhhffhgihfegheiffifffgfhfiihfefiefgfiffgghghfhfghghfffiieehhgiihehiiigiihfgiihfigfghigggigegfgghefhgfifieehfhfhgieghifgiihfegeigfifihgheihfgfifeghffeheihhfehgeghffffgheeeegffiegggifiefhfihfieigihefffffheefgehiiggigiifhggiehhifiehehfefffhieieigiiheehhigegefifhgffhhigeihgihhheghegfeheefgfeifigeififfifeeeheefheeffifhghgighhehghefifgffiihighghieighfegeefhgfgefefgegeiheffhhighhihfghfiiffgehfffhhhfghfeieheihefifhgg
riheeefehifigfefihgiegighehihhhfgffihiighgfghhfghehiiefggfheffhhggihfhegehfehgifihgieefgfeiifegfgfieffihffhiehgeheihgggfihefhhiefehhhghiegefeihefihifgefeeiiehfieiihigiiifgfeefgifhhhhiieeehefgeffeehifeeifefeihfgfeggfhgfhigeiehigfhifeeegfegfffghifiieggieieggieeififfiigffigihhheigggfgieififfeegfieehhhfieegeiiehigghfiggihfffegefihfgieifiegfeheieheigiefghgeegffgiehfgieiihfgheihgefffgfiffgeieghhgiehffgegfhieiffeiiiehehggghfghhfhfhffehihieighifgeiggggiggeieeheiffeffifeffgfgeehiheieghgggieeiihefffgefiheeeefeefffhhigghfgiehigifhgffhffhfffihiefiegfifiigfgfhgihigiihgigffffghhgheeihehefhggg
rhehfggiiffgigigeifeifgefgeeeigghieffighfieehigfhhhegeehhgeegiegigegggehffhgghhfhhfeihfieffihfhifhfhfihigffiffeeghehhfgieeeeifieigeghhgeieehiehffeiiihefhffiigihfifegeeieegihggigfhhffieiefhifffgifgffhggeheihfhffghgfefifihihigigifigehiehhhfhegeheghfffhfffhheeihihhgiigiihgifhiheifhfiigegghhhhifgighffgghgefhhhhihfieefgifggeieihggihihhhhgiheihieifgghffhehieggifhigggfgigfgffhfgihfifiifghhfegiffgeeegggefhfffeeigfghhhfffiieieffehfigeehhhiiifehegfhgiihfehegfhiffiiffgfiieeeghgigefhgfigiiegifheeghhgihffhhhifghhefefhegggiihhffeeiiige
rfhffigiggiehhhheheeiheeigefgghgehefiighgiiegiegieiheiiggfhihhheiiihhfgeefgiggiggheehiggfgffeigiefhiigfghifgfgiffefffhhigifieeifhiggfhffgehfgeghghihhghehfiffeiifffgfheihfeehgfeggeeghgeihhgigfehheehgfhehehgfhiiiffihhffghgieeeeeghihhefhheggihhgfggihehiheihgieiiiggiegheiefgehhgeehgegeefhgghfheeeieiggiiehihgieiihifegiffhfeffehfhgeghehgfhfgfefffgfhhgeffggggghgefehfeeihhgihhgehiehhgeiiiiigghiheifeehfeggieefefhiffffgeefiigheghhhehfgehfheihfhihiefhhhggiihffhefeeggfhfiheigeieffheifgigfiigiffifehghihighfgihieffgihffigghfhfeggefggeffegeieifhghiefffhegifh
rfhggieffhgffgghiiifghiffgigiiheghififgfeiihighefgfefgfiefffgffiiffigegigfgfhfffhigfiefifieefiegghhfhgfgihhifffgheegehfghhifgieiiifehiggihiffeeieefeiiigeiegeeigfggeffieihhfehgeifhhgiggegghifefhihfgghghgehggffeffhgeehighieegefgfhiegiighfgieggheiihihegifghfheeiegfifiiihefegefgiifififihifiehhgefhhehihhffhfiegehhfiiheiiiiiihiefghifheiieeegieehieigehhfiggififeighhihiieefggigfifefghihghhegieghfghffghhfehegfffgihgefehiegehfiihieghegifefegghfhfhhehhfffiighehgggegigeehfihiefhhghiefghefhhfhgheeeigffgiegegfhfhhgeeifegifeghhgeehiheiiefeegehefehffiheeieieehgefgfhfefggfeeigffgighggegiiiiifihhgffeiiiefifeggeffhief
rhigghgeegigegiefigieighfiihiheehehehgfeigefiifhhfiiehifghfgiggiigegfheggeihighehhfhfegieehiigihefhhfhfehehiggihgefeeefffigeghiifggighieeeieifhhffhigeghiihheiihhgeegfgefiegeheffighfifefgfhfefeifgiheifffifffigggfhhififggeiigfgiegffiggeeehggffeiiegiffhffieggeiihgehfeefigeghffhffiiggheghgfehgighiheifiggfeeeehhfgeigfhhefhfhihfhgghhhegggggeeeheggghggfhfgggeefgiihhfeeeeigeffghegieiehgggegefgigggeiigihegihiehfiefifehhegeffehhieeihigehihhihfeiifeeieehfgehgegeefhgfheefeffghghigheeiehhefghhgeegifeghhgfgfiieegeeifegihhihfhhhfhfheiiieffiehiihfheiefieegifegghigehfefghgefiiieeffghehegghhigheeffffgfiifghehfeegh
rehhgeefefhighehghghififgfihiiggfegifggfeggihigegiefhfgegiefegegeghffeiggifehfghggfehfgheifeiggifgghgfggghiffgfifgfghfghghffgeeihggeffieiifhhiifgeeghgfhhiieigigfheiiiefehiehhggegifggiefeefgghfeheeeghefgfigehiiggfehffiiihfhifhghhiffeeifiiifhihgighghigfeghieegfffiihhghiifihifihefhfeeggefegehhhgigggghfhgiiiheffhggeffeifggihehgigihegfehhifheefiggfhieggihgegifffeghhggfhefeeeiiigeheggieififhfgheghifggghiieefihheeegfgihiefgififfehhigihhihifhgfhieeiiehihgeifggfgfgigegfhiiifeghfiggigigfihiffgeiiifiiiihihffhfighgigfhheigigiifhfiieeiefihhgeggefhhgffegfiiehgfihgfiffefeeeghggieeiiiifehfghhee
rghfhfhhgeihiigfehifgheeeefiigeifegifgifiefhfheiffeeifhfhieghghigfeiegeeifhfieehfeeghhhgeffehggfeigefgefefiffifefgggghfifigifighhiighfhhgiefefffeeeehffifhfighhhhiehgeggiihigfghfhegffhigiifeiieeihgfefeffiiggifgihhgfhihifhhgeeihgefffgggfgfehhfhiiigeifhiffifgeegffeefhihffhehffighfgfehihegeegghfeeieiiffghfhigeihighehfeehgehefheghgffheefhfhehfgeggiegfiifgfighfeeiheiefggfeghgggfhgeefifeghggiihiheehihgeeieiigeieeihfhfhfhegeehhfiheihgighhhehhghghigiihifhigfieeegihiegghfehiihfiifhhfegifffhfhheefiehgffiieeeieieeefegfieighiehihgehfheeiefiihffhfhfefeegghfihfgehggfgigeggfehhffhgfighf
rfhiefegfeiehigfiieggheefhggiigggegghiiieeghfifgefeifgighffggheieifhhgehegifheiegieehfhfeffggfigggheghfggeeggigfeigifggfhheefiehihfhfggeiggfifhifgegihhgheheghhfhiifhffgeefifffihhfihffggfgffegigheefhehefhgifhgiefhhiegfghiigifgfiegfiggiffeeeighgeggeefeefhfigiehffgfehghhihgffeififfffhifihiffiigheefehiigfhehghhheffeehgeihfhgffhfgeifihigfhfifffghgihiigghefihfeeffhfegeheggheighffhgfeiiggeeieeghhheffhhefgeeifhfieigfeieegigigghghfeffeghhihiifefggiiieffieehgehehhigifeghehihefgeefigggggigegeggiffeeggeigfegggieiegfiffifhhfggeiiefhifihgihgggihhhfggghhghiehgfiiggfehiihihggieghffgfgghgfegeffeeefeigg
rigeffefheifigeffhifeeeigeiehhgeifeegghgihfhefihfiggfihhighghgigigehihffhiifefigehfhgififfffefiieieiihghggighefefghhffieihhifgffhfehfhhhgiggiiighihgegifegefgfgeieeeeehiihffighgfffhfeifhieehgggiehfeheefhfeefefefffieiigiieihgehegiigfgfiefeeeehfhiihhfiifehhfffhggghihgfgehieggfhfiggefefiighgggiifeeegieeehigfhfgehghfheeghgiehfhhffeghhghgiiggfifihiihiihhhehfifggifeghifeeigghehhiihehfhigfeheeeifghehieihifiefgfefgfigehfehfgegiheffihgeghiifhfgfhehgefhgefeghfehgieefeggfgeieihhifeigfiigfgfgifiefiihhhighfghiggeeigfhihihffghgeffigigfgegfhfifhiefgegeieigiiiig
rehifgfeheghihfggfeihgfgggfgfehigghfifhigehheieghfhfhgfhiggheeigighifgeeieheghiefeheiieeighiigfiggeefeegfhihhfeehhggeggifhhegfifefffghfefeeghegfeihehhiihifehhghieghihhgehiiehgfgfhefefiieighhhifehgehiegffiiieigffhfhieeeehihigegiefeeehifehgighegfeffefhegheihieeghfifgffgegiehffeiifeehehefiegiiggieieifgfggfehgiiegihghihifghefhigiffhhgeeifehgehiiffigghhfiihieehihfgggefegigiiiifgehffihehfiehiiffihhigehhihhhifhifieeggeehfehghifgigffffeiffhgigihefhighheihggiifefifgfhfgifgefhffiiehiehhhfhgefihfefiiihehehieigeegeieieeehegiiggehffeehegfihgfegeeggighfghefghiihegegfeegfeeieiegfiiegggghiehefhgiiegfgfhghgghifiiee
rhhifhhhfeiiheeegigigfgfeehfgggieehfhiffifgihhifghgfiiiiggfffeeieegeiiffehghhgfgghhgeefigiefigefigfifigheighheffffhfhfefhggiiifefifhihffeefhhififfefhgghifgeeheieggfgegghhhfhieffggfigiehfgfgieghihfigeieheeegfhfiiehegfhfieffiieiggfhfihiiehhheiiggigeehegihgfihhhghffiggifeefiieffggffihgggehhffeiehegeehhefgfgfgfeeiiighhigfeefgeighgihefeihiegeehgfiiegeiffigegiigffehggggfheieefiigihgeiefighegehehfgeheihghiifhheihifeggiihiheghhehihehgghhffhffgigeiigefgffheefeheieehgeheffhieigefhihfgeheehfhhiihfggggihhieehgefgfeiheiegiieghigihfheggefgeffehegefgeehiigghgfghgegggfeeheifhiheieifeggefiehfhgehfihgiegeihheheihigiiefgihfgfeggfggefggh
rigfiehiiefefhhhhffeefhiigfihhhggeegfihgffggegeehggeegieiefefeiegiiheggffihhhfeghgiheieiiifgiehfeggggifefieieeheghfgghihgeffffeheigghhifeifgifhgiffhigighgefhefhihhegifgiiihhigiefhehighfgfiegifhifgieihfehfghfiifiiehhfhigeiffgfeiggeeegegihhiifeiffggfhffgggieihifhiifgfgefhegfihghghfhffgeeeefihffgiehgefgghhhhgfggeghhgihgffhihfiifihifffffggieihegghihihfghgegfeefhigfhehegieighffhgfigigggiihfgigfheffhhhifggfeefiifhhefefgihieghfgfgheggfefggieghfgfhhieheeieiihhfgfhefigghihhhfgfegfiififhfegeiegghihifhgffhfegieffffigggheeefeehiigehghihhgeggehehfieiiffffghheihieffegghfggeegehigfefgfihhgieggegehgieggefhe
rhheigfiehgiieghhfghhihgeiigfgefeihehefieihifgiihhgfgfeggighhgfihifgfgfgffhhieiihghhehgieiihgegefeiehgifiifeifieeghgfgffgeiigifeifgiefhifffgifiieghhgffiffeegfhhieeeghfefhgfiggfffehgfifiihfffggigifgfhhigfefffhgfhfeeiiihhgfgeeiihhefhfigfeheeghfhhfeegeeehggihfififfgghfihfgeihfeffehhgefigggfgeeehgigehefehheihhgegegifhgfehhgeeeiiiegefeeieiiiffhhegfhfgeiegieeifiiiieifgfehghggfgeehfgehehgghfigghieiggehgehigegiegfigfiehgegheihfighhihfigeiiihfffeiggfffieiifggffgfghgieehiifgfhgeeffhgeehfgeeeheffhfehfhiefhhieegiggfihehggeifeeiehiefifieiggghifghghhiheifighgfiggiihfhheeggefeggeheifheiighhegfife
rgiehggefhiggfgehhifihhhfhieihifhhffeifgieffhhigfheghefgieghefghgefifehegiifghefhehfhiegfegihiiegfghfeieehfihfgfifigggifgheehfhegeeegffififihhegfgfiiggfeghehhghehehihifheghfeegghhhgefgiieeegeegeegigeigighiihfifffggehiehiehfgfifgfhfeheigfifeeghiehhifhefgfeeegghehiheehfiiffhffhifigifhhhfheheieeefgeihiefehghiiieffgefefggfihhghiihehiefgfieehgeiegfhiieigegfgfehfhfhhhefighiiihfhgeeheifgfgfiiehghfhffighhfeigfiihigihehggehieffhifggfiffhhgeifiefhifiihhiigfgfgggfieggheeeeggfgeehffggigfieheiggegehihheffihgfeiifefegeffhghgighfghhhhhiiiiieie
rfghgheefhehfgehghheffffegeffggihigfiihfghfeghhegfghghgifggieihhfgfeffhhfghieiiieheeggfeffiheeihggffifiehefffeghighhighhhifefeifhegihhfgehefegefeeffgffgfhhieieefgfifhhhheeeeegggehggeiheiighehfgiheifiggfeihifeiigffifhhffifigeeehegiifeiehhhehgeffihfiigeghhgfhgfgfgefigfgeigeiiheiiihiggieieeiheefgieegigfiigeigifiiefffhgghfeeghhheheggififfhfgieffhghffefhgggheeeeggifhhefgfefhfhfehigegeiiigfihffeheffeihfegfhgiiehheehiggiehigiiefghfigifieihiehiheghffgefeiegfghefefhfgigiihigehiiheefhffighgfiegffggfhfegeifgiefhhfifigghfeeggghheeiegfhififgeggheffiihhgehiggghiiieffh
reiihffeffeggehhegeehegghgggieeihihfhggihihhiifffhfghiifhhfiihhghhhheggfgeihfeehhfgighegghfhiiegeeggeihgfgehighhfeieefhgeieifghheeeefiiifigfigfeieeefeghgeihiihffhfggegfgfihiehhgeeefefheehfghhhffhfgeifhhigeihiieigeegehgieegeihhegeihiiihihhheiigigggeffggegfehhhhihgehhiffiheehegeigfgiegihgghgegfegihhgfihgefigfegighgigehfifihgihhifgeheihfegieifghhhgegiiheegfheefigieiihighehfihihhiegfeifgefieghigehhiheiefeiifgggifeiefheiggghifegiiggeihgiihhifegfieeegiiehgiiehifhhggfihgeiffifieffehheefifhigifegeiefhgfifghgieegheehfiiigfffihefhegfgighhegggieeegehfegehfhgihhgheehfgheifiggiigiegeeehehfggeggeiihfgghhegggigehgg
reiihigghgggfgfehigeihegegfgiffifehgihiighfhgehefhgffghfefffggeehiiiihffhgihighfefghegegehigeiiehigiiheheffeffhfiggeiigigfhihgefhghhehhgefifggiiiffeghfigiieiihghfgegegifgefffefefhgfegefhggihggiiihgfgeeifgfhehiheheihighfhfeeggifihhihhhgffgihhifeffihfhgghiegfffffhiifgeiffgifeegifgeifeefegihfeifffiehhiehhfeeefiggefieifehihehiffhiehhefhhifheegiehhhgihghfgigfegggeegieehfeefheihhghegeheeigfgfhifeiggfgighgghfehehhgfigfhfggggifihhfifghfeeihhgihhhigfegggegffhgifieihfgeffiffeeihihfeefighfhfeiifefehheigfhhfhiggihgifiiiggggggiieighiheffeifffieghgeifefeiighhhhggghh
riffghhhfifeihfifhefgiffiffhieggeeeghhgeiheihhhffeeigfgfieehfigfiheehgehhgiffieiieeffihgeeffieihefhfeeiheeghigghghgegggigeefhffhgefhgghggegfiegfeihiffihhfffegggghggfffhhiehiiffheeihfifeeheggigegifeegefieghghfifggiheiehiigifhhgfeehefifigeieieifegffigfifgeigehieffhfiieiifefgffgehfifegehgihehehihfieihigieigifiieeeehgegfhiieihfhgfghgiigefhihgihgfhfgeggffhfgfifghiighhigghgigeiifehhheefefhfeeehffggefiigfhfhigigehghhhhfieffgfgieiiheeefeggefhggfiefieieegfehiieeeifefieefggeiihefggffgiiiiieheeefheghghieefffeggifeehifiehfeegefgeeeehgeeeffeeefffgggehhhehhiifffgifghhhhefiegeieifg
rgfeefffegigefhiffgiiggeeihffiiifefiggegfifghfhigeeiegigiiheigfeghiigfiihghfifghfighfgegfhegefheiiighehfehiiihgggefeihhggheifeififeiheehhiiiggffiighhgggggfhghiiffhiffefeieehgfghegfggeiiihigihefhfiifhghhgfgeffheiegeggiehhfhhgfiifhgefgiieiehihieefgigigeeeeeggfeehehgfiiegigeigeefgheieegfgiehfghhgfifgfhghhfgfhhhhegfhiieeiihfihhgiiefegfheifeiiieighefeheifhfgfhfghggefhgefhffgfeifgggeghieifhhgghggfeghehffieefffihhfggeihhgfhgggihgffiieeiegggihgigehgighieffgeggghifgihhffhegfehheghffhghfehfgehefieggeiehfigfhgheggheifheiiiggghfgffigheehigffghfifhiigfffghfihihfghefefiieggggh
rgeihihfgfeegefghgihhehififeghggggfgifefhfgehhghgigefgfhgghfhhhgeggihiffeeghefggefegefgifgefefefhgghiheieieeeiehgeeihiiiffggiheigghfhhhhgefiifghhigfhfhgegifgifefihfihehhhgifggihegihefehegefhgiihfhhhfifehgghhfheghfhifhhhihheghfefiheghfihiifiehghfhiffigiggheieiehfhigigfiheihegfhhgggifgfeigghhfeheigihhihigefhifefifihifggifgehgggffeegfiifhigifeegehhhhggiiiihhfeiiehgfgeifhfihfheggieihffhgifhihifffhfgiigeigighhiiefghggehfehfefghfegfeihfgghggehghggeeghfehgegfehghfiieehiegggefehfghhhfhfeeehhighghgghfgfhfhfifiehiffgfeigeigfgeieghfegifhggeefgigeeiggefhihffheigigefffgeei
rffhgeiiffgfigeihigfefgifeeiigiheggighihfhfeeiiehhfefhihffgeeiihfhgifhigffihgeiehggihhiiiiifheiihiefgeeihigeihgifffiiehefihfehfeihgfegehieeehiefgfehhehgeghggfgfeiieiefhghhgeeighifigffieffghheeeeeighiigifgegfeggiffgefiffifhifhfggefhihgheiiehigieiihegifihgehieffhiefhhfhgifhffhgeieehhihffggfehefhfefeheffiigifehheiiigegigiieiheghhifheiiigfhiihfegghiiifhfhiihigfeegfifghggiiheiegieiihgegifgehieehhiiheieieheffihhhgfhiegehieiiegefhhfieffffegeheighgfffhieeeieiifiihfeigfgghggehieggfhgghgieihffefffhgeiieihgfighffegiighighgffgiiegffhgfigeefieefegggiefieeefhfgeehfegiieefhifheiegfeegiegfiggfhigfiffhhffgegehfhgihgfie
rfgfhfihehefeffhigeifhiefgifihgfiigigieigeeghfhihehiehihefifiheeigffffefheefhhehffhffiehgfffefhffehifeeehfhfffeiiefeffeiifgiefffffeihhiffeeifgiegegehifgeiiggghhhfghfiegigfgigghgfhgeeggffehhhfhfefgfhfeeegigfigghiiefgfigiggggiifhfiefgefhgghfghffhihiigehegffhifihfhghihhhhiefgiigiehggfifigihhiiggfghfefigiefhfeghhfeeefiihehgigfeiiggghffigfgeifheheheggegggfiehffgehffgeehgegefeihefgifigeghefffefffihhgghifhghifegheheihiiegfhhieffeehgeifhgieeegeghgfhgeiihiihffighifheghiihfihihffiieihgeefhfiihgeeeggigfgegeiefffhfhfehfgfefghfihffheefeffgehfheiehgghfiffhh
riigegeeeffegiighefeihhiefegifggghfiefieihgfggfgiigfggeieehihghgeiihhheihefhgigfhegggifefgifihieiheiheiieggiffhffghfgifhfgehgihiieeieihhhgifigggeeeggheefghehhigheiffgfggehhhheeefggiiegghhegieeiihhhiegeeeehheiighehheeghhfiehffgifffihhihgghhhghffifhhfhiehihifgheegeifihfihfgfgeeehhhgifgiiigigiiieegfheefgiefigihhggghfhhefggehhgihhihffgehieeheheihfeffhiegghfiiieigfgehgfegfghhfhiifegfgihfgigfiffgehfgfhggfgeiegefiiigiiehiggefhhhhffifehggeiiiigiighefehggeheehihfgiggigfefeiegeffefeegieggehgfhheefgieeffefhehehihefeefeiiegehgheegeehffeiegeghfehghhiheehgghfeighfgfiififffeigggieheehgegeiheeehfeigihfgiigef
rfghggeigheihiehfggighfhhegiiiifhifeffiiiieieehheggggiffiegeeifhhgefffgghhgeegieffehghfhhiieheehegifigegggigfhegeefgeifhhefhgfhiiegeghiighhigefigghggfhghihfgfghfehehgfefgiegfieegiifgiihgeheefieefeiheggggiehfghfgiefhfefigfgffghfihhfggffgieggfifhggfghgiiehgihehheeehfhgghiefehggehfefhfhhhgfeffhhfhfiehegefgihgfiegghhefigifeeihhgfeeeeiehhfgeehhiefgeehgfeeifegfgifgieiehhgfhgiiggfgigfhifgggfhffihgfigggfhghgfgfeffihihfhgeiffggfgihffgeieehhhfeiiiieihhgheegigehfheifehfghfgeigfehggfefegfighieghgfiigggeeigihfeghgheeehffgifihfieehgigiiiifgeffeeeeegehiiigihhhhehgifhheiiifgffihgfeiifii
rheiheghhfgffhhfihgiifhgeeiiffhgfefeehhffhghfffgfhfefgifihfeffhhgieiehehhehfhiiiegffiehhhffegfefgehieehieheehfieiehhefifighihegeeeggfehhhiihghhffighefigeifhiheffgigiggehfefgiiheffeihiiggggfehiiihfgefggfefgeigfgefefehiegggefheiiiiefhigihieheheheffhehegeheheieifggfffhgghehhghihfiiighfeiggeghhieehihefhgfgigfiheehiifiehfggifggfghfififehggifegiefhghegfgehhigffegehihhggeiehhiefiiiighiifihhfiheffifgghiheifeegiigfhegghfgfihfefifgfeghhhgihggiifgihiifhfigggihfhfehhhifehfegfieeehgifehgieiiehgfhggffhhgghieigeeegfigfhihheifigffigeegggffgghigfgfgfggehgeghiifhfehfheefhghif
rfgeifihhiffgefhehhhhfihhiighhhffegefhefiggfgfgiiegiihegiifgiiieihggfhieehiiihfeeegiigihfehfeihfiffgigifeegghegifieefieeeehgihehifgehghfghhfhggigifeiigfigeifeigighgiheffeighhfgheigiiehfegieigifgieefhigefehiihihghgggfgfeeegifiehggifififfheeeeghhegiiiiifgfehfeeeihigggihgihhhhhhfieghihgghhiihieifhfhgfhhiffefgfeghehfhfgfgfffheifihegfhiigigieghegfhggeeihihgfihggieeiiffhhgegeeeihihfeeiihfegghgheigihfihhfffhhehgeigeihegfeifggfhggfhfehiffgfhehighihfeeieeeigfgiefifhhgffigegeiihegggifiiihighehfefieiehhghgiihheegggeifigggghehefigeiefhieheihefeeheieghiifgifieffheiffhffeeifgfhe
rhigeigiefeihheifgegheeiffeiehgegheigifegffeifggegffhggiehhefgeeggefhfffighieehfeegegfigiighhieeigfgheeeiiigfghhighhhieeeieefeeghifhfihghiifiighfggggiiifieifghfhigihgghihghhihffghegigeegfifieehifiihihifhggfhfiihhhehfiiefegfeigihhifggiiggihfehifiigheifefgfeeeheffgfghheihfefhfgghhhgieegfhiiffgehegheighhighefeeieifheeihfhfghhghheigigeifeiefgihfgfhghhhfeefegehiifihheeiigghfgeffehiiigffiffieeehfhhfeihghfffhgiigeefifehgfiiffihehfggiehffifeeeieghihhehifighigeiighhiffgghggegihgfhefhfihhighffgiighhffefehfigffhghfeihhegghiegegfeegfghiegheegeieieegeefeegg
rggihhfhfihefgfhhhigehiegeghggfifeigegeghhiefehfeiefgehfgfeiehhieiffgfeefigigfeiehgehffeihffhieiifehigehfhgefeefhghhegeiefhfghefggffigfggihhfefiiegeigffeigghifehghifeghfgfgghhheghifegfiehiiifhiggeifiehgigggfgffhghfhhhhiihfiihiigeeifhheegheheeehhehfhhfhfegiiifgighieegiiggfiifhfgiiggehhggihehhgfiiifheegfehieihiheihhihghfiiffehgffgfgiiiiifhggiefiheiffhgeiigihiffeeggigfegeghefhffgiieffggifheiigihiegggeegeehhhfhgfefiiehhhegghghggegeggghighhhhgfiefhfffigiiehgieifggefgeheeiigeeehefegeghiifhehhifeiiiihfiggiigfhhghgiggfhhihhii
rffifeeigehifgigegfefeihhghehhigefhffigefgggiffgeigffgfefiefgffigigfhffihhhhffgfeiigheigffefgfegfhhfifhhghhheggghffiggfhhffhegeheeiffifhefighfigihffeigfghfggfeghgfihgehffeigghheiegeiehifegiffgeighgighegiiihgfiifeefhgeeiifgghgfgfgffihgheeghgiigfhghhgigfififififggehieegeeifgfgehfeggihffhgeihiieiiggfigfhhhfgefhehfegghegefgfgehhgeifihfghiiieefhhhgghgfifiehihihehfifghefefhegfeffgihiefehgfhfiiieehiieeihefehhhieeefgfhehiffhehhgfgfhigfihhhfiiiiigfffifgehfgffiifhieeggfegiifhehhiifeghggifefefgeeifihgggfhigiggehhegfgehhgfeiefffifehhgffhhggeggeieifgifieihg
rggefhgfhegiefiehfgffieifffhhgheieggeehhgeeghiiiggeehgeehhefehhffehfefggfigehfigefhihhfhhffefffghiffehhhgghgfiifeigeieegffieieihieifeieigehegehiifgffgeefegeefhgigefgghfhfhghffeihfhhfeihgiihehigeffhiihggehfhheifegiefhggihgiigiehgfeefigiefgheehgiieghgffegfighiigighiigfgfigfhfgghegfhihfgghgfiihfighhhefeeihhgggiiegeheggegeghhheghhhiehfififhheghehfggehffegiegiiegegehghgefhhefeeegeegffihhgeghhfhehhifeeiheigeggigggefhffehehfhhiffhgiefiggfiieihehihhgiiefiiieeefeggfeieggeghfghiffgeghhehgieifhiefgeehiiehgffgeihiegehgegheffhehfeefeefehefihhihgifgiegffigihihiihhihffifghfeieeehiihggfhifffifgifihgegehggeigefeeheieigggihf
rggghfeggiggiighhefeeihfeghgiiggfiiffghefhigifehhihhhhiheegfiihhfefigeieehhifegeiheefghighefgffhhhieehgehgigeiififfghgfgeifgggheeggehighiggihhgieifefehffiehfehiegiehghgfhhfffefghieegffhhfiffehhehgihfgfehehefeeeehihighhiiiighfggefhiihiihfhhgeheghfigiehfehffehihhehieigfifegfgigfeigfghfeiihihfhffifhfigigfhieeefihghhhfeiiihgifihgighhfeeieeigfegeifegfefgeegffgheififiigifiheifeeifighgihhhiifieggfefghghihheiffegeieheehiiggeiigegfggehfhffigiifghhgiheeigifieiiggiigggfeieeegfgggihgiegiieheiiiheihgffegfeheheeeghhffggegggiigiihgiihiigigggiiefeeefgiffgfefheefifghefefeifeifhffegeeef
rgfieifggeieefhghigffhgfieghgghefgihhgefhfhehfhhggieehgfeffgeighfifefhhfefghiefiggfieegefhgfifffeghgfhhhfefegifffhehhihegghghgeiihfghfeiihffihhgfeefeehigifhffggfeeifgeghgfgefehfgihhhhggfehegefighhehehefggggefgefehigghhehggfgeiggegegfggeggfiihfgieigefgeiigfefhghegfiighfeifeeeehgiheihfhggehghiieeifiggeieeihgieihghfihffhifheeehifgifiehgffffheifegeeehfgffggggheeiffiehfhggggheeggehehegeifggiiiffeehfhhhgegggieigegeefefgihhfgigegghgehehggegigiiiffeihghhgfhghefghhefeehhggiihfheieiiiihgfhffhgffgfihhiheigggeggehfighgfiegeeffhfigigiiehfgeiieiihhgfheeeehfffigfihehgehfieefgiefiigg
reeeehfhfgfiffeffgigigieieegieeigeigegehihhfgeghiiehhihiifgefgihiegfggiihgeeiihieeghifeeggeefgegighifihighifiieeieeehgegihggggiffiegieiheeieeggiiigggiifghffgeeheggihfghgheiggehggeigfgfihhffhffefgegfiffiefifihhgiehfgegghegghgheeehiiieigfggihfheigififefhgihefhgiifefhhheggehffieeffgfggefgegegfffheffhfeggheeheeffighggifihihfefeeghefieeieeiheeigiefffggefffiihiggghfihgihgiegiggfhegheiihhhgfeieighhgfiehihghgffhiefieegefihfiighiefeihehhehffiieggigihiehghiheghgeegihgghfefgigihhhhgihgiifgieggfhfgfhiffggfhfggeheighffigiiihhefigiiieffeiiffhhihggiehhiiiihgifhgfehhhfhggghfehiege
regieieiieeehihegihhiefffggihghfiegifgeegffhefheegheiffeeeifiigigiehhfifigfieiffhghhhfhfgeghififgegehhhgeihgfehighggehhihggieihgieeihhheefgfhhgefgefeheeheihigfeiffifiiheiifgifeffghgieefiegihihfehhiifghhhgiihghgegheiefiighifiifiighfhhiggeeieifghhfeihiifeegehifgggeehhieehhefeeiigeghieifiifhgigfiifihfehigigghhifeieghghihifgfgihhhfgeghgfefghgheghiggeghieggefeegigifhgihefieffgghfihhigfgifegfgffgiifhihgehhggegigeghieehffeeehfggeeffihgihigfhfehehgfigggegghegfggiihifegggeeheeefifeffihefgfheehiiheghiieefeghhhgiefeiihhhihhififefhefehhheeghffhhgeeihhgifhfhigefggiieghfigfehiifgieggiiegeeiigehefhghhegeg
rhhfifehhhgegiiiehegehgffgiiggfigehfhhfiheigihhighigghieeeehifgfheiifghiigiiggeffffheehegehgiheghgffffhfegghfiigfegfghhgegiigfighgigighifgigffgghiehiieehfigghihfheggefeghhhiehgfegffghieihhehhfheefehhgffgehgeghgeighfggiggigehgefifihghfefegehfeehehhhiggieegggeihigfghhfiefifgfggiggiigeiggiiihehehhfffghgfffhefigehggehiggfhgfghigfghhegfhifiehfehheiifhfggfefifhghhgeehiighfeiiheigiefgeehefigihgiehifgfhggehhehieiehighiiiifegffeiefhffefhhihiieefhihhigieffiggihhgfihhefhggifgeiffgigffiigifeefhhiifggehfgggigfgfeieheehgffifhgigihghheigghfgffeheefeeiiffihfhihiiegiehfeheiifighifeeeihhefiihehgghgeheegeihhhffggfi
rihhehfiiffefiheiheieheifegeifhiefieeggiihfeiiehegigeihiieiihgefiiffhegififeehigfeefehgfffeifgeghihgigfghhhfhihiihhfgehhiegeeeghigehiifeiffggiihhgegieghgfhgfefeghfiiiieeeeifigfhihgfehiifheiffhgiifhhieefiggfhehiiifgeefifgeieghefheghhhgeeeeghffhhfheighfeghigeeefghiggfghhifehfefgeefihfhffhghhehifehgefgiegihgeeeggieeggheiiffgggieiiiffifeieheeeifffiegfffigehifiehhhiiffhgfeigffeegeghfeeeghihiffiighhfiegfifeefeghghfgeffhgihehggghehiehgfigifgffifhhffieifeifihhihiehghgfefieihiffegifihgfeehhigiehggffehgghgeeeheighihfgeheeihiihihfefihhegeggegfgggeeegighhggeefhhgiegieffghfffihififieeihh
rfhehifgeffehghggehhfhiiigeihiehfeefifeegfeeeeggegefhefiihfghfgifhgfighieeieeigfhiihfghffieighehfifehifhfhhggghgfihhgfihgiiigfieehhhiiffgfhfhhffgiifeefigehifighgefiiieigeeehfggghfiighfehgfhfggfhfhehighiehhihggighhefhfigfeieiigiighihiifihfgggifffgiihfeiefeeeffgigeefiefgiieeeffgeffihgiiifieeiigiifefghefeeffiihgggeiiehgfegeiggehgiegiggghehiiefhggiiggfgffhheffeeggffgeighfheiihihgfeefgifgigiiihihifeeeifffheighiefifehhgeghiifhiefihiefegighhggihieegehiefiieieghiegegiihfgghgfifhiefiefhfghggeghfieeeiefigehefifgfigheefieiheffhhgehhfggeiefefigehfeefgffhiifgiiieeehgihhefhhggeeifgehhihgeieff
rfhhffefgehehhheihighgefhhieiffegghfheigeghegfhffihiheffeghghgggihhieggffefifigiihigeefhgfeghifigeihiffhhgiiifhefiigfgehfggifififeigheefiigehgeigghhfeiggfiigeheegheiefhehieeffghefgegiheegheghgfhgeihhffgfiigfiiifehhhihggfigheffegfehehfiiegeeiiggggfgiehehigfgiehihegffhfiihehgggifiefeeffiihhihhifgegfifgihegfgfghieeigffffihgigegegeifgeigggffiieegfieggigeffefeeeeifgihfiegeeiegffhfieehfhfffghggieghhhiififefehhhiihgifeeiiggfgfhfggifhghiiiigiiihghifeegiigghhfighffhefgeehiggegfhgiiggehihgiihiiieggffihfhehfhfiefeiefgfffegeifffehihgeiheiieee
rghffhifiegggihefggffeffiiihefeeiifgighfghefihfgehiieggifhiheehifgheiihiihehiiffiggeiefeefeefhfgeeigiehheehiiihffehegighegehhggeigghiehiffighieiihgghigeigigifgeeghighiegeeeiefhihgihfiifhfgehhegfgegfgffgfgeigfhgehhfgieeggeeihhfegighggfiifgeiigiihffefhgheifhgfhgffihhfiihieifiefgfgeffhfeegehegifhifihgiggeehfgeifefgfgeffeffifegehiifehefiiihfhiifhefehgeiffehfhfegieeehffifghgffffghfeffhghfhfgehghfifieffgfefgfigefihggeghfigfiiieehgefehieihiheffiiefihfegiifeeifehffhfghgfghfhihgefihhfggehihiehgigeeifhehfiigihgegghifgfggifgeffghihigfeegiifgifghefeiigffhf
rffgeehhfeifgfeigehfgfhefgfhigiehgihghiieheeghifeggiegigeggfehhhfiihihiehggggfigehfefgihiiffgiehhfihfhefegiiehfghiifhiihhefgfhfgigegegihfhgfhfhfegeihiihgefeiigefihffgfigfeegehieheeefiigeihigegfhheggiiegfiiehiefeggfffhffiegffgfhehefegeifgehgfeeefhgfiheigfheghghhehgehfgeigffihigeeifeeefheeiihgegeggheggieehhigfffifgiiggfffefhihfffhhegheghfiigfeeeefgigigggffegifggfigffhgegfhefheihififffigfhigefhfffgieehhehffeeiffhegfiggeffeifigifhihgifgegeehffhhfihehhfiegeieihhehgiigihgifhgfgeegehghiififhefhgifffhgfgheghffhghiggggiehehifghgeghefggegiehfhgfieiiieigeehfigeiffighhgegieehhiieehfeeheeihihheiiffgifihggfegeggeeeeg
reegiehihhhefggeeifgfgehgggiigiggffifehieifgffiheeehigfffeehgfefgheheiefefefiiiigfgffeegegeiigfhhhihiffiihgihhhgghhhhegfheeighggiffegieghifhhfeeiheeigfighhgieieigehgeegeheeeeefegffiieiehfifgigefeighfifffhfhefeheihehhffiiiefifheefffhggfeghhgghigfieiffhehfffihifiefheihghhggifieefihgiegehhffgieegeggefgihihihegifehefggieefeehgiffffgeefiegigfehihheeefhhieheiifehggheeegefefghegggeifhigeggiihighheeiggiiggfheegiefgefeeegifhehfiffehefieeehefeghhiifiiiifegfiegghgehhehfghfeheigehefiieeegifihhgfehfghgggfggfhfhhgehfeehefifeifhgffiiffhifheiifeffehhgfeihgfieiffgfghifgeiege
rfggiggiiheehifeigfggiigigeihghieefiihefhefifeigigifgfihhfiiehheeffeffffiigeifhifighehhiighfehffiihgfihehfgeigfegeegihhehhgehhhihfffgghhhehihfggfgfehgfhehhihgehhgifigiieiheeegfehieeehhehiheiiffhighefhigefigifghhhehheggfiheegeiiefheegehhgheefeeiihifggeeihgegigfghhfegieeieheggfgigfhihhgfeggghfgfghhfhehefeiefhieihighgehiggiheeeefihfgeigieegfehfigihhgggehfgihgeighfghehhegiegheigeggheifhfgheghghfffgffgegegegfhgfgghfffihfihfhfhiiggeiggfihhghhheefhhiighhgihegiiifffhhiiheffhehehhihgffgegeegiffggieeififhgiefieiheifffffghhhiffffhigehhegigehgeihiefgigigehgifeeiiii
riifiehihffifeeghfgihiigheeeefffhgegghfffhgieiieefefgfhfgehigegeggiehehfheffeefgfhheeifiiehhggeigifeeffeiiffiehghghhhfigfihhgheiehigeggigfehfehfgfggifgffefhehiegegigghfeegheeiehfggefehfifiggffgigfheeeggheiggififhfifihihgfefhfhfffffheieihghfigfefgfffghiiiieefhfiffeggfeigihieeghghffhheeggehgfhhieeffefhffiigfiffegehighhgheefhihhfeeiegegfieegggfiheffheihehffhfieghfffeigefeihfhhgfigfffhfieihieehhhfhghehhefgheigfhhifgefggfhgfhgiigfegfeggghihehgeihigfhiggheeeiegggfhgihegihiigiififiiggfeiggfifhfgiehiegeffgehfhiihhhgeefgighghfii
rfeeiggeiigggffhiffhffiegihiiffehfeghgiigfhfgfehhfffehggigghiheifefiigfheieehehfhgghefhfigfegfihfgigfgffghfghgehiiiffgggfhghihhgggfhegiighhgehffgeghifgeffegihihggfiehhiffghfhiiefiiigfehfgefhhheehgehifgfihihiffieghhghffhgfighfehffgghhhhihhefighieggfhfhieeifhgifihigfiffihihegieigfiefegiieigiehgffeeiheegeeiefeiifihffggfffeheiihiiigfiiieeffgeghfefgihheeeeefieefiiiieeigfgihiiigeffefighigiigfgiefhgggiefeieihifgfieefiifeeeggiiigghffhgggehhiggefggghihfiieieiehhhighiifiifhfhfggeghigifffeieegfehhhgifhhggggeigehggfhhiihhfeggefeheieihih
rgihfhegeghheggehheehehhfihhhhghehhhfhefhefeeehhfheifigihgghgffgeihhiegifhghiefeefihehgefihehfeeghhieeeffgieiggefhhffhiiiiegfgieehieegihieefeghfgfiifhefhghfiehfeeigghfhefiefgfhfhighghhfiifieiiehfghieihefiihiehfhfhheiifgefiffgehfifgghhhghhefiehiheeefeehigffggifhfffeiehiegeegffgghhghhhegfiifhiiigiegegeiggfiehhhhggieifffggifieheegeiifggghiefhfhgehhhfiefefeefehhhghifggifigfeeegeieiegefeehfefghighgfggififighfigihehehiefgheiffhfhiheigggffeigeehgiheeihgihigfiieiigeffiiifighfeeghggifghfffeegeffihehiigfeiigieieiiigfeiihffehefghfehhhfhgegiggigheifeeehffeihii
rgefgeihiiefehefgefhfiifigeeihiegfffghfhigiiggeighgighgghigghfigieffhgigifhheegiighfgheegiigehgeihhieeigfgefhegggheifhgegfeeeggfeeegeifhigfgiifhghihffefhefeghhieeifgeffihehghffhfiggfhggiifggfieeeggiegggefegghehggiegfifhhffhhheegigihigiiffifigefigiifiiieggeeihffieefffghgeiffgfegghffiifhffgfgefiggfegfeigfeeihgfhehhfffhgfifhghfeihigheiefiifhhifhigihghigiiigefhfgeihgfffhigfeeieghhefiighegfiegfhffehihfhgiighiehigihhhfhegghifhhgefghigfhfehggffigigehhhgghghfghfegfiiiihegeghiieefghfefiheifggigffhhegfgiheigiihghhiifeihiheigiehihfffhgehfgigggfhhgiehhi
rfehigfifigeffihfhefeeehheeiefgfgeghgheeigggegegefeghgfhghgifggigiifgfhiiffieghgehihegfihehigfefggighhfifgfffihfhifeiieieeeihhhfegeeehefghiigiggiieeeefegfghieifgfgeiihfghefghihiihiffghhffifgfeeegiifhfihgfhhgiigieihfgiihgifgffgfghfegfeeehgfeegefehefehhfehgheefhffghfiegihgffighegeeghhifehfhffighifefhieeeffiifhffeeiehgeggfefhfhffiigffighhiifehfgihhfhghiggehgffhhheiggiehihfiehhhhgieehhiehhgegehgfhffhggghfihfighhifiggihfhehhegghheiegfhegifhfggehheegefheiheheigehiifefhiehegegeegeegghihfeggffiiefgeggfgefihffheghefhifeieiefefifhffeheffeighiheeehhiehfgihfeeehehifheiegeieiihiiheiehehe
reieefehfgiegegfgfhfhhhgghhgheghffehihfheghiggeihehhihfhhighgeihhifhihhigfhehefhffggieeifghhggfhhefhefggghighhgiiihffhehhhfggeefghigihffhfegihheigffggigggeegefiighegeifhieiieiiihggghiigffggihhhghhiifgifhefiffghefhfffhihgifgieggighhhffheheheheiifeeffehghggiefeggiehgheehhhihgegiehggieefifhggeihgegheehfeifiieefigeeihfhiehhgghggfgefeffgighegefieffhifefiefgihfgefhgiffihefgeghgeihifefeegifgfhiihhifeefefhgegfefffgfgeifiehgfggiffffhihfhgfehhheihhihgeieigffigigheghehhgfehiheefeifhehhigfghhgeiiiigggfhgiigfifgfigfgggihigfhigehfggeegigfghhegiiigifihiehhfigheiggigeiih
rhhhhgiggfhhgieegehhgfhhhfhehighgggeififhhgggigffeieheifhiifhfiehhggehfefegeigfeihghhffheefhheehfihfhihfieieiggieiiefehhhigfgieefhffifghfhehfgghfffihihffghehegihheiieighieffieigfffgigehegfgihgiefegehhieiggiiigeeefhgfeeihigeiegigiiefgeeifihffffiihefeeieigfifggggihffiehehfiighegfgehhegghieehhigheigeihfeggigeheihhiehihiifgieihheeeiehfiheihfiiiehehieiiffeighihffihehhheghfhifhihhiegeieeehfihgeieggeghigihfghfeiehfggigggefgghfefigeighhgifeehigfhfhgigffhhiiffgghgfgeeiehgghhggfhgeiehfehgiehhghfffffghfihieehhefiefihfheheefihieffhifieifefiiigefhiigiigiieiieifhhgiigfeeigihifieeeieihfeheghehfeghiff
rgfeiefefgeihffiigghhiheigefgfghhieifheefgifieeeigegfiighfhehhhfgefeiheeefffhhihhigfegihhgehehgiieeehgeeihighhefghhegghefifiihheheehhghgggifegieegegfhihieifegfheifhfgeiifeghigeigiggfgihfgifhifihifefgfiiheegeffgifhfehhggfgggiehegfihehggeiegfgfggiiegheegggfighfhgifghhhhhefghefgigggggifgfgiihhiiifhiiheffgifiiehfieeehghegeheiifgieggeeehgfifhgigiiegghgfhefifggfifeehfeeifhhhgggigihhfihheefiggeeeehhgfghiefieeeifhgiihgihfegeeiehgheeffehgfeefeffifeiefifhfgeeihehfefggfieifffhieffgfgfeehifehfehghfieeffigiegfghgigehigheehhgfiifgffggifffhfghfighfeiihifiehg
riehfhffgfihghiffhgefihhehgfiggfhiiggfeiiighiiiggfeeghhghhfhgeihifefgeehfiffegeiheghhggiehgeehhiieehggfhigifigfegehhgegefiefgehieegghieihgehihhhehfhehehiegigehgegfefffeeiefieeehfheghffehggeefghgefeffhehiehfghheieeehgeffghgihfieffhfhgfeeggigieifgehiffffeeefegeheffiiigiffffhhgghhfiigggighfiefggefhihgefihfihhghihihefeeefighhihgeiegiiheeghfihgggheihefffhfeeigehiieehehgeighffgfffifihehieeiieihffiihggehfefghhfiiiigiigiihefiigfegiifggigefehighifgegigfigiihfehefihhhghifhieeifhggehihhfggeiiefgeehegfihiffgegggihhhhfefeggigefiefeegfhigffhieghheigffefhigeifgeggeehe
rffgifhihfhiegghiffhhigifigeiihgeffigihfghgegfhfgeifiigghfgeegigiehhfifhghhgeghiieeefegifififehgggfhfggehgghihgeeeehggiehfighhifgeieehehfehgeghgihefhighgfeffegegheggfghheehhhggigfihhgffhieefeiifififfgiggggfffhgehgefihefehfihihfeghgfgfeiifhgfeheeifeggeefgeeggfigeefieghiehghhgegfffhhgigggefeieggfhifghhggfeegifeffeehegggfghffeeeefieihhhhegihigifggfgfhhhifgifgfihgffgffgheeiefegfifgiihhheefifhgeihigifgfhffghfhiggfiefggfefehheifefehhgiiefeffifeeghgfeefgeeghiieffefeifhghieggfeiiiefigegiheeiehgeeeghhifigeghehifigfhhhifeigghiihffhihifeiheghihiffiffhifhfhhhhhifffiegifgfeeeigigfeieegehhhhhheiifffeggi
rieffihefehgeeeeeeeihhfiigeeihihgiieehhihfhehhgeeiihgehhiehhhihgfhhfhfghifhgigggfiehfehhffhiggihggeeeghihhheegifhifegihhgfiiehhggeigiihegfegfieiehiggigihifhgihgfgfegeefhgffhhfigghighfggggfhehiegiiigggihihggiiiiehgfeiehfeeffghhfgeigiihihehgfeeegheifegfhhheifihfeggiegegggiiifihhhiieegeeiffheiegigehggeihgfifihihifehhfgeihgihiheffiihiiggfhfiifeefhfigfigeefiehhhhifihifiiieieefheghheieeihgiiegiieeifhifgfgiihgifgihfeigefhfhgeghgffegiiffheghieefhihifheeeeggigehigehghgghieeiffieiihifhfgfifefiiegeggiefhghieihgeififfheiiheeeiggfefegghfgigfeihigegihghgfhifefefffgef
rgghifgigeeeehfhgigeeffehhhfggghgfffgegffifhggigifgfhfhhififfhihihfhhhefghgghffgghhgifefiggeeiegifeifgfffhhifiheihhifeeggiheeegigiieggfegffheihgihfefhgeigeeegigiegfgfffgiieeegihefieeeiegfegfgfhfihieigfigfiigiihfihheheghghgehfifefhgggfehegiieeefhffihghhfffgeeeihifgfighffhigeegfhhfeiigehfghhfheeefiiieeiiigfihegeeffifihfifggfiiihhfffgegiifeifgfgehfefgiifihfhgiieegehffgehhfefhfifhehigghehiiieegiggehfegihieggghegigifgifhfghhiiehghiggehgheieeggffigheegfhgiiifhfgieiehhehhefgighhghfigiiefifgigihgfefiefiegfe
rgfefgheihefifgfeihegihehefhfffheeefgihfgehhheiegghfhffgfggiehieeehgfiiefihefiehihigfefhehieiihifhgighiigifhhhigihgefhehgehhfhiggffffggefhffgeifehhhfifefghgehfififhfheigfefffigiggfhihifgffggfefihigihfgfgiihhifegfiefgigihggiehieeehghffgfegghiiiifgfhggfifgiigfgggiehgifihhihifgfhefeeifhgheiigffhigeehgigfgfgfifhghhggiieihfffeiggfhghifefhiiieggfhihgehhhfiffefehihieiffiegfhihiiighigfihggeihghiegighgfeighfggehfiiheeiehfifhghffghfgigfigiheeghffghghhgihegghhihhgeeihighiihfgiefgiihfeffehghieigeihhegfihfhhghigifeghfehfggfihhighegfhfieiggiiiegfgeghiighgg
rfehhehefihfieehfiegfffifiheifgfiifgieihiifeffehhegfiheeeegihfggghfhegffighefieifggefhgfhfgggiffiheeghhfhggifgegegehggfhihehiheefggfgfgehffiihhfhhfehghigeghiihghfhfgffggehhhfffgggefgihhhhgegfheefihefeeifhgggiefffhgghfeehighfieegehigieggeifggeefgiieeghffihgieifieeehgghgfgffgghgiiihigfhghihggiggieeieiegehgehffggiiigiiefgihhhhgfeffihfffehghiieeefgeegfiffggighihfeigigigiggfggffehhiihhfgegihgeiiiihhhfhhefggghififggieifhiigfehefghghhehiggihiggeiffgggghhfihifgfeifeifehfffgheiiheffieigffgfgiiihheifghgefihihggefhifehehhhegighgigihghhfefeeegffhgeehehfeehighghhhfeh
rifeehfhfiffhhhfehgeefeefihiieeiihegghgeghhegfggffhfiefffeeegeihffehigefhhiefhigiihifgegieifhiifggfgffeififgihfigiefhehgghhgiehfgihhgfhhefgeihfiefehhhfehfeghhfeeffggfhhgeeiifhiihggheggigfghgeeihghighhhhggfeheeggieghiffhffefghfeghiffgeeffefhhfihegihfiegghieiiehhhfhhiifigegefggiffghhiefhgfggfhgihfhgihffeihefihiffgefieigihhgfgeihiefhghiehgfggghiigeihihhihfihegefheehiggfhfhefeiegehihihfegghiifiifeehihfeihhfiihiigihhhfegigfehgfhifigiifgegfihgeeffefgfhfeifhhiigeheiefhefffieffhggeiehgeeeehifffehggigighefhhhgfgigggeggeifgfiehgheheifffifigegiiefggeiiegfffgiegffiggehfgif
rgggiifffhgeheifhhgfehgigfggifggefeiehehfeeegihegfhgfeiihhfhieeifgiheffififhhiffefeiifhgiigheeehgfgeieihigfefihihhhgehffgieiigehhiegifefhifgeifhifgfiihhheeiieigiefefihgefiggghgheeiiegiggefgeehgiiehigeffghheghfeggeeihiififggefhffhhffghfgfififeffegfgihfeghfhiifgigefgffegiihihggehiihegehheiifhhehgeeheggehheeeehieiigfeggifehffhhhhfhheehiehifhfhgegigfhigeihfgifheefhgiihihfiffgihhfihehhihgighgeehehiiheififgheghfhfifgefiiiiffgffggeegihieggeihigieehefiggihhfgieifeiheehgifhggeigggihgffhefiihieiffghfheffehhegeie
rigihegeghieiifgffeifgeggigihiheheihhfheigghiegghgfiigffhhgfgeghhhhfgghhieiegfgfiiehfigfifgigfiegghiifgfhffehfhgeighefiihheggiiiigheeefhieeghifhehhggghggiiieeeighgifhigefiheehgefiiehfhieiigefiehehhieffffhhehffgeiggihihegefhhfihfefgfiighfeiiifhihgghhggeeeehfieggiefegffigfiifhgiggiefiggefefhgeihfggehggffheffiheeegieffffiffigfhihheeghhfhfiieiighigfgeeghfffiiegieegfehiggiihhfiifegfgigeghighgffieiihhhgggfhfggigfgeeiehggghiefefefieegeiehggghfifhfgffghheiihigegfggegigghigghhhhieihgihihiiiffghifehehffihhiffhghgghgfigefgggfghiggeghf
rihfhfifeifhgeiigiefhiiehihgfggifeeghihhhfhhfgififigeieeeeifgfgfhghfhfghhehfegifhiefeefeehhhieihiifiehgeffihhhiigieiehigfieffffeegfhhieigiggehfighiigegegihhfifhighghfhegghgefggehgieffgeefhfiggfgfehigffgehfifhgegefegheegifffhhheiiigfggiegghfigfggffhhhiefeefeeeefgfeegeighgheifhgihgiggeigfeigeffhhhgiifigeehheegegfighhiiefhgigggeghehhgheefegegfffhifefifffghifiheffhhgheheifgegeiifigeghifgeghhgiigifgigihhheghihgegiifhehhhfhgghgffigefeeieeegegihfiigfigfgfiifhgiiieefgehgeehigfghgiihghehifighhfiegehihgffeehhgfgigefegfiegfeehihgihfhegihighhefg
rghehhfghhffffeihegfeieigfhfihiggigggfghihiefififegfeggihggiehfehfgggiehifiehgfihhhegeiehieeghggfgeehgihieeigghgghgefigfhghghfefhggfiffehgiefeehhgefhhghgffgghigefeiigggffigfiggihhghfheiiehiieieeefighefiiiigheggggegiffiighifefiffhfhifhiegieffiehgifeiehiffeeghhfefefffhhhhffifehhhigiihegheegefighehghiehghgihfiggfhhfeeghgfheeeiefhhgefiheeihiheghhihfffhggiggeieegggeigeihifffhfgieeeheieihefgghieeffhighhhefifehhefgfeigiiffgihieieehgehheggiieiehhhfheeghhfhhgeeggeggfeeeififefeiifgghfehehi
rgefggfieifgiehifhghigfhiigfeggifgehehggeeiieieighiigfghgfighfheiehffhefefghehgghhheihhiighhfiegfeegeehffhiffheffifhifihhghfhhheiegfehghffiifgeehfeggieghifgifgegigiifhghiffhfffifehghhfifhhgeiffhfhifeiegfieigghegehghghfgfhhggfeehfeggieheggiegfggifiiiieegegfgiiiifhfihhfegheeggfeifehhgeefhhegiffggegehgihieeghfhihfeehghgehfffghiiefiefgihhhfffhiiefegigeihfehgfggeiihfffffighihiiiigehgfieiggefegefeigfeihhigheghefeehgieffhhhehefhiigeeeefgefihhefieehffeifeiiegeghgihgffifhfeffhgihfgfhfihgieiiiehhheigifeghhihfefigggefgggihhihfiifffhgheghfefhheee
riehfihhefiheeihfgfegigfgiifiefffieehhhhfiifieefehhggheggghgifeeeeeieeiiiegfhgghheggheihgggfigffeiggigffiigghfgfhefigeiiehgfgeggfegfieihffheiehigihfgigggihegeihefffiegeheeggfgggghigffigifigfhiiifhghfehhhgigfgfefhheeeffghighfhifeggfgfffgehffeeeeegefeieehehgiiihiegeheghefgefgeffhifiifhfiegffeegigggfhggeehieieeifeeeegfgighgighfeehheeeeiigeiefgggggfiigfifhgeiiggigeiiihgfiihffgiheeighhifgfffheehefiffhheghiheehgegihheggfeigefgfhfiieggggffififhifhihefeegififiigheihggeheeffhieihihehefeiifeeeiefihehfihhgifighghhifhgiihefhfeiifiiieegehgggiefg
rhgfheeghehihhhigiifgfigihfhiffhfiffifhiifhighiihegefhihfffgiehhiiiehhigfhfefeiigifigfgfgehhehffhfffifegffhgiiifhegfhiigggfihgffhgiiefgfggfhfegegihffgheffiiiegiehfeieiigeghgfeihheigfiiiehefhehfhefeiegfighfhhiheefhfghfehieegghhhhiegfieieeifeefhhiefhheghegefgefheiieffeheiheeifgiiegiifgfheeifiighihfghgfiihhgegggehghehfgigiegfhhggggihfeiihfigifefihfgegeigihhggeeifehhfifhhhgifeeifeifgfhfifehheiihghiifgggfihffgefffhifiheehhgeegieghhffehgefhihehfeghgheifefheihghffiihiffheefgheghhifehieghhhfehihgigighggeeffefieegeffheffhi
rhfigehffefheffhgfihggeihigeeeheififhigefhehffgiefiihehhfhhfhhhgfiegeggggieihieefiiffiegihfhifgefhgfgfeghhfhghhhiggfhgehghhfegihgffeegihegfieiefhgihfehhefgeifhfiehiigiffgeffghfiggeiefeihghihfhegeffighgifegfihfhfghgiggggfgffihheieiiihffgieheeieihihehfhegfigefhgehfifghgefeegefgieghhgegigifhihiifeghheegeffgiifihfihgfgigeggefhfhfiifghhhiegehiiehiggfffhehhgifgeefhiifgfhgffhgfhfheiigieggifhhhfgfefgeieihggehgiieeeieehifgegehigegfegifefegfhfeegfiihghgihiehhiigefiihigeifeefeiiiheiiihihehhigeghgfhhfiggfeegieheggfffefhhfhghehehfiighhi
rhiheifgfihigheeifhhiefgfhhggfffeeigfhiigghighfhfgggghiehghffiififhgiifhfigeieiggfieifeheeffieiefigehhhiigeehfgegggheeheeiggefghfgiigifgihggigihiififefhfhehgegeihffigehgegfgiihehifheiffgehiiehiffhfgihifghgffgighigeheghhfihihgehhigfhihffgiihfiefihfhhgiggegihegghfhgifehffgifgegegfefeghhihfigeghhfegihhegghfefhiiheighifhehffgfffhheihgfhfeeihihgiiigihfffiieghfhhhggfegiegeffhheiiihgggehffffifehhifefeheeifeihihiefggfeeihgiigiifegieeigfggeefhfffheeffiihefgiehiiifihhegegigfeegifgegifgigifeieiegfeghghffgifgfgefiiefffegggheihgehieeifhfeefiifeihggiegiheghifgfih
rfghhefegiigffhiheeigiiiiieeffffeefefheeggiehgfigieghihieiihghighfgffhghgffeigihffgggffgeheghgefeiefiiifeggfehghgigiefieiieiheghfgifffgihfeegifiihhiiggeigfiiihefgheefiiiffffgeghfhieegfihfhgiffhifiggeihhefhhhfigefiihihiieeghhgiifffegehhhfifghhhghhffihhiegeihifghhihfihihifhigfgeihegifehfihhgefhffiffffggeffhiggiigeeihihiifieifheiffghfgiggefgggigeehfhgefhggieeehhhfiggieegggghfghihfhheggihgiighihifgefgheiehfihgigfgghifhhfgeffeeeghfgfgfhgiifghheegefhhffhhifegfgeeihihffigifeghgfhheifhifhefeiegieeeehfiehhegfgiggfhhigigigiegfiiffifhifhifeehiiggg
regfffhehhhieghfgifhhigigiehigfhehghfeiiegfeffihgehegegiggihfeffeeeggfhheiefgigegeeihgeefihhgffgghffieiifgfihhieeffhfheghhgegiiigfeghghifieiifgehheiifhgffiheeiihgffiehefhfheheeigfhhigggheiheigigehihehghfighifeefifhfifhefeihiiiihifffeigigfghhhiefgfiefefhfeggggfhiehegghiifiigigiefiiigigefigeggigfeeeefghehegfiiieheeggeehifffghiiegihiifiiheeieheghieeehfhiggeigefhfgegfigigfigffgfhghgehhieehiffeihefgfhfhigehegfifihfghfiifighifhigeegfffhhffhgeifehehfeggiigeefiifffegeefffifheiheegfgffhhhhhfieegfeefghefififeeggieiehghigiehiefggfiefffgighfggifheifeieghffihggheh
rhhffeeeefehghfhgihgeeghhihgffgffggiggeheefhhifhhigeffegeiifgigiffefhefigiihhehhfefifffighegiefeffhgiihhegfhgiiefgieehieffgehhggfhieggfhighhiieghiiiihiggfgefgggeheiefifeeffiffhheigfhehiiegfeihhfhfiiigifhfiifggeehhehiihfheghiihgehfggiheigfffffiihgeehhhhffigghgeegifeeeififhgeifegfeefhfieefheheghighiffegihefiehgeeheiigihhifefiihiigffigifehheghfgfegeiehfhighhhiieeffeehefhfhiifeiegegffegfeeiegfghigeiehhhgggeghefegggiihegieiegifgffgeigifiieiffihfhgghgiiiefifhfeieehgifhefifiefeiehieiiieehhhfhiheiefeefhfihgeehfegfehggihgiifihfe
rehfhffifihhgfiifgiiehehfeiifggfegieifiggeeifgfgiggifgiiiieghgihgeeffgeiggehifhiieegighifhhiggeieegfgigigheffhggeeiigiehiiighfhhghgfiihfihehhgehigiffefffhefieeheigeheheehhhhehgggifigieefgefieiegfeiieiheiffihhgiifghigihihgeiggeggiehieeefifghgfeigfghihhhhgehgigiiehggfhgigeffgfhhehghgeifggiifeehhgffhheehgfheffgefgihfefefgffgeeefhefigfhfihgfgiiiegffhhgegfeihggfgheiiegihegeffeghheififeefihhfegigifhfghhifeghiefifihegiffgghifiieegggeghhiefhhigiffihghifgihhigifihifggegehehhhifffieihfheififgeggfieffgffgiighehffheggegfghefhgighihifih
rhegfeefghgieieggiggeheiehehefihgfghhifehhgeigeghgfeefeegeeiififgfffhghhhehiihfifheffeiegiihhhiegeheeihhfhgfgfeefefiggeggieeeeggghigiigegehfhifffeefgeefgehighhgfgighggeifigggheghfgffheigihggeefegiiifhgegiheggehihgeefgiiihgiighehggfgihhgeeggffhhfhfehgfhighhgefegiigigfieeifggfeeihehfiefihhigegfifhiiifehiiegihfihihiiiheghihggieeeiefihehfgefefigiihhihhighfegfeehgfghihfhegihhfhifhiefhifeffhifffifihfeghihfhffggefihgieighgfifhhiiiggheffhiieifgghgigihfghhffhgeghiffihiiiefehhhffgeehghfefgheighhffifgeeggffefghheffgfgigfiegfeggihefifihighefiefegeffieeheggh
rgfggghfeiiffefeihffeggihgigehfhgieefehfeeiheghffggffigihhhhgfhffefgfefheehghghffggghgffeggihefifgigiegfgehgghheehghefgghigfihheggiigfefifihiiiggfgigiggeifeiighfigeghfffgeegiifggfehhiiiefhihfeiiggifegheigfiiiheffeegihhigieehfggghhfieffieeehghfieiehiifhgfieehhfhfefgfegieghhfhhghihheighhgehgfgifefeefigeggfggeffifhhhhhgifeeeiigeigfefiieegehefghgefeehfheifiehgifeiiieeggeeghgegiheiifgighfgihfehgfhhhegeegfighhhhiighhiiighieehefhhgeggeihfiiiigehfhhfgeheieggeigefgheiifehefgifefgfgifggegieeegehghffhgihgehhi
reiffhgggfhehegeigifhehhigfhiifeehhffffiiffgfeeegigefghgfgeefhhhffgeihfiiihgihgfifighgiffiieeghfhefheggffghehhigiheegffifeihgiihghfgeefigifegeeiegihhgifhhigiiefghfiegehfgefigeeifehhiihiifhehgiihhigfiehgfiihiiifiheefffiefeigighhiieigghfffhgffhfgigegigiifhehfeieefgiiffgfehgfifeigieihififfefhfiiehehfgiihieiegeifefgfifgeffeigfeefhgfehfihefehfhhieehfieegfiigfefgiiggehggfieigihhfffggheheigffhheggiigfgigiheegefeffgefgeeehieifehfffihggeegeiiigeeigfiihfegfiihggeehegeeeihfhghfgeeeieheehhfigefififhgiehggiigefgeffgfhiiieehfhgihhgggeeigiei
rffiiigffffgehhhffgefgeeeehfigiefeiegghheigeegefigggighfifeheihhfehhgghghfiehigihfgghgfgefgegeiheigihehghggiffhfggigfeifhfgeihhfigfheiehiiighhieghhieigehfgiigeiehggeigiegfhggfieiegehihifgfiegihfheeeigghhieifhehgghgfheefiehefihhfieehhhheifefieihighiiffeifhegfhhfhffiiiegfigfegggggfhehihhfegfheiegefhhiighhggefiigiihehfheeiifefehghfhihhggeehffggheifighifggieggheeheegigifgfhihfgeifgggfgeeggigeifgieffiehghififheiegifffhieihehfggffehfeefghghfgegfiehgfigeghiighgefefffghiiifhfhegehififgffhgifeigehfhgfhggighigefgihffeegeihfih
rfghgeeeeihfgfgfgiihggiiiiiiggeghgegehhggfiigfffegeiffhfgiggggfegiegghiiieihgggififgefeefggeeeggigffegffhgegfihghiiefeeigiiieffiighigihehhiiigfgieieggiefeihfheeghgiiefieehiefhihifffghegihhiefghhhieehgghhiihhhgfiihiiehifheggegggiiefgiifegghfhieghfiiheieiheheigeghghiehhigeehgiiihhifgiegffgfhghiffegfihefhihghihhhigififgfgfiggeegifhhiihhefhfihgeeffigigfgfeiiehhighhhghhehgifiifgggghieefffgfeeeifeghhfhheiifeehgggfihheiggegihfeheeifeghfgifiefigiheieifigeeghheihfgfffieehigieeeegigghffhihggefggehefheifffgghiifhgehefgiiffiiihiihfihgggeii
riheeigegehfigghhfiifegiehhgehifgihieffehifghfgggfheigfigihihiegffihiehgggfehiiggghfeiggihgiiifeeeiihifefeeiieghiggifiigihfigefeegiegheeehgiefiihffffeighgfggegeiiehihiiffefgiegfhhieifhgehfggfffieggihhghffhfhfghegefhghfeehigghgfghegehhhhffihfiffhiehgfieehieefgefiefgheeffiihefffhihieefhefehhefigghgiihfheiefgffhffffgiffeffggfegigfehihhhefghghieifehifefgeehegeiieihfiifehgeffgeigffhhghhgheehgffffgfgehfgeifhegghhhfefgeiggefefhfefigigeefhehegfiehffghhfghhgfffhgeehigheeeihheihegggfgfheihhgififhgefhehhihhggiiefihhefeifefe
rhgffffiighehfegfigfgffgfgigffhfiehhffghegeffehigegihhifghhhefefheigfigghghfihehighieifhiiffhfhfhieeegiifighghfhefhfeiieegfhffgihifhgeiefghieegefghihiiiigiefhiihfgghigefhffhhhfhiefefgifiiggffgieiiiiieighifiefehgefgggfffeighheieiefgiighehfhefehgiegehhfhhfhhehihehgihhfffiigfgihghhegfeegfheiihfhggfgeihiheheghiefeiegiihifefifiifgffhghgghiffiiifhihefifgigighhhefeihehhhgiihehffhehifihgigigeeeigfggfeehgfiiieeigeehgieffgeiighfhghieeeiffhgffgifiiehgfgfifefffgefhehefffehhhgiigeggghihigefehefihhiieeegfeehffgghefiighggf
rgffeggfgffgheefeighfigffhhhfegeihhgfehhhfgifhehiifgiefghiggfigghgifeifhehihhfhifegeghififegeiieffffegghhhfheehfgghiggghhgeefifeeihfieigfggfiggffghhiefiefihhgehgifffgegeihfgghhihieheieifighiggeiegheieeegiiggfeffhihfefeifffiggfffgehigehiggegfhhgffgifffigghghiegghfiifhhiehgihigifggiefhgeegfeehihheehefihhehigggiiffhieeghfieeheeeeehhffhfegfiigigiiiiifigeigfeihgefhhhfeeffigeeeiiiieghhgeghegiiieggeiiegggihiiiiehfgiigiigfffegghfgifefeggefiegiefiiefeihfgeiigiffeifffeegiighigihiefifihffgeefhgfieiffihgfgeeieehgfeeg
rhfieiihihfiigegheiigfffffghiiiigghifiifheeiigfggggihegegfehefgiigeegihgfefgggeiiiegieihheiifheeffhegfgfghhfgehfihefeefigeeeiehghfghiifhiiefehifhfifhheehefigihhgehffigeeghggifgfehfhegigeegfigefehhfeehgfffggfhiieegiiifffggegiggihhfggihiggegffgfhhgeifhhhigifeeghiiehifghheigihgeggihfeigihhifgiefgegeheiegfieefihfhfhghgghiefhgighghhiiefgihgfhgihhigfffgegefiihihhieiihffgfigheegigeehihgififfhiehffieheififiihhhgifgefeegifhigeiigifgieeffieihffigeieefgfighghghghifeiffgehfeiifhfhhgfgefe
rheehhgfiefhfiehhhfgiihegfifiggfegfegeifeeihgffefggegggfiigeffhhhiigfhhfegigeggfgghfffiegigheefffghgggehffggfgehfiiggheigiieggfheihghegeigieiiheeiiigiegiighieffffeeihghgfhfgfheegiiighehghggfhfhifgihgfieihfghhfeigghgegghgihhigihhieieeehhgihfighfghfeefifegeghehggigieggifgeegfhiiefffeehighghfieefeefiegggeihheihihgfhgfeehhfhfiffiggfgfigggehgfigeeegfeegffeggheghghefgihgfffgghihhifeihfgeeeieiiegffgeiifhgfgeeeeigeegihhieggihihiggihhghehfefhggeeehieheeegfhhiieghiegihheefihhfhhfghiiefgffgheheeighheffhgefgfihehhi
rgihfgiieeigeeehhgfieefheeiheihfigigeihgigefggehfhiiifgffiihhgfggfeighfhhhigefgieghfhggffhfeggifefeggiggggieegigfihffgihgeeeiffeeiighgfgfgiffeigiihfigffifhiigfihghhffegigfegghghhegfffgifhheiehgefhgihffifehfifeifheggiefefeeiigheiihegiiggggeiffgiegefheiegeeeheigegiihihefeeiiihifigfffgiigfgiggiiheigegeegeihefgfhhhgegfieehgigieihgieegigfhgigiheighfeghefegeigehffefheegeefgifieegheefhhfehfiefeifighifhiegefieifhihighfiiihieihhhhiifgifgfefgiighhghfegeifgfggfgeefiegeiieehffegigehiieegihigghigghiffhefeeegfgheghehigfhfgghfggeggfhgigeigieiihhhhhieiihggfefieehhiggfigehife
rgfhgigefhehggehhgiheeeehgghehfehgeghiiiheiegifgfgeiggieiheghfifeefhiehiegeighheehfiheighfiiifeiffggiegfhihgifiigfhefiiggfffghehggghefiegggffhehieehfigheeiiefigfgefhghhfgigeggeggefiiififfiieieifhehfhehgiiigfiffegefifieeigfighhghfgeeieifigggegegeihefeihieggefeghfgehhfgghiggiiieiiffegehfihheehhihfgieiifhhfihheiegeiieeihefiifegghiiiheeghiggefiihhhheigfehefhiehhfeggefgfhiffeeeefefegihgffheihiehhiefggfhegihiiiegfifiggfgeeefgffgfiieeihihfiegfgheihihffehifeeiihhefeeieegfeighgii
rgiiegeefhfhegihhgiefiehgfiiifhefiifgigeeefeiehigiieeeeghihiggihhhgeefhefigeigghgfeghegfieghifghgiegehihgfehhghefheihihiiehfieffffehgiffeheefehiiehgihiefgfeighgfheeihffhhffiiehiigeiffeeigfieheeegieheigighhhheieehihffhhhgihiffffffhghgghhefhfgefhfgiifihghihfefgfegggiegfigghehffhggigehgihhfegigfffgiihhfghffiifhfgghefgefegieighhegghgehegfffggeiihffhfghihhehghhfghihffggeefgeeffhiigigfihhgeiehffifgfeghhheefhfieefieihhefefhhiihfifhfiffigiihfifihffiihefieiheiiiehgifeeheeghihgefeighfhghifhigiighfiifg
rfhfihiheeifggigggghffeggefhiggfhehieiiegehfhgigefehigehghihefgehgfifhfeheghifeiieieeghieihheeeigieegffehhihfiiggigghgfhifhiffeeegfgfgiighieeiggeffheghiiifgehhgfffgeehgfeghffehgffgefifeeighiffegheeiihihfgihehifgfifhgfiighfhheieghfeiihfefhhgfgieigggfiffgefgihgiiiehhhhifhggehiiegihfefheggfeigiiiiiggheegieeiggffgihhiiehgghghifghfihffhfghgffeieigiehfhfiheggfeggfhfhfigifhgfghgfigeeghifhieiihiefghifehgeheihgfgfhihfifihgeiefihhegfgghegeigigfgeffhggigigffegfiihgghfieheehhfeeghffhehiiifeigfhhhgfffheghegegiifeffhieiffi
refghfffiiigffhhhefefiegeeieegifggighgeghefehihiifihgfegifeihfgghfefegeiiffhhfgiehggihehfgiehgifeiihiiiheefhhehhhgfeefeihgffieifghifghiieheihegighieffifhegighfifgeefgeheggeggifeehgggegiegghehegigefiihfhheehihegggeggfgiefiihfeeihehffhiiiihgeeiigfffigfgfgeegefegihfgeehihgfefhheiffighggegighgeigfighiihgehehheeiffifhffhgihffeiifhgegegehheieghihieggiggeehfeigfhiieihgihhhieihieehhfeefghieefhhegefhhffhfeheeifhififfhifgfffifhiiegihhgifgghiefhffegffehiifeegifihgggfheighhgehhhegiheigihhfeihihgheihg
rhfehhghigihhihhgihgfeffiihifgghgefgfhfehgeffffeeigfiiieeeiigiggfefgigigfehhfehffhefgfhifhhfihhehihgigfeigheiiiegfhfggeigfehieegfegeeefiifghghfiifghehigfigefhihhfhhgfefeggggeiffffgfffggiiiiiiieihifehhiggfgfieeeghhfhfgggfffeieeeheeffgigfgfgiifhggfeieggihhhihegffigeeggieffigiiggihigfhgihfiifggggggifhfiifiegfihiigegeffffgihifghefeihfefefefehhifhihegfhifhhgffhihgieieeegghfgiiehggehgfffiiihghffhfeeihehfheeggffehfieheiififefieifghigheehhiffghifgifefefehhhgehehhegggeegihhifhefiffghghfhhehfefggfieffieehihhfigggeeeehhhhf
rgfefhfeegheieefihgeeehggeifeeihigheffgfeehehhfifhiieifeihffhgegeeifgfighhifhgeehgiefgehefiefiihehiifeheehhieiiehefiifieeigfegiggehiggfheiigehhheieigifgeihhhieeiiiihgghgfgifgehfegiffhiegghhihheeghgfhfifhghhegeihfefeeeieiffifffeeieihfgegegfefihgefgfeegfffegigihghhfeeeggfghefeggeeieghfhhegeiggeeegeeegfghhehfihhfehifhgfhihefhhgeeigefehighgighegfifihggggeegegeeigeeihfggfffiheggfhefhieeiheihehefheffieigheeiggghiefhffgiffgffiifihhhhgeghghgieeefheiiehgfgfefefhhihi
rifhihfhehiefifeifehigiiigfigggfhhfgggfghgiffgggegfggehhgfgeiihgeegiiehgggieehhggfiifhififhehfhehgihgggfihhfffffgegfhgghegeehheggieffiihhhfffgifhgghffhfhighigegigeeieeghgefiegiiihegfhgggfgghffhfhihifffhhghgigggifehiegggighggfffeeghhhhgffffeegfhgghefefieifhehhggigegiihhghhfghifffhhggefeihhiefhghfiiigfeghifgegehhgehfhgifggiefeheieifegffeefieegigfeeheigiheehhfehefeigfiihiiehhgiihefiggggghhehfffigeeiieheefhhhihhgggifeifeiifgeeeghifhihfgiiehiehhhiiehfeeghgefggihfigieghfgieeieheeei
rhefghhgifgefeeiigheigffgggegighggiihhiiffegfghgffieigghiffgehegfghfegehegehfffhigheegiihehhhfgfhhgeehhhgefihighggeggihefgfehhhhffhifhihheiiefggigffiihefigfehihiiigghghfggfhfeiefgfehgiifgfiieehfihgghhigfieffgieifhhghfeififhiehigggghfhgffeighehfhffihhggifhffhhheefgeeefffeifigigifeieiehggieeghheghfggiiieghgigheiighefhgehgefgehhhhggififeieiggiieiifgfhfehihfehiheiifhehgfhgegfehehffgghghhhhfhhfighgefehfiheefieiehhihfggihhihghhehhhefeifeigififigeghefeegihieffhfihififi
rheeiigeiiigififhigifhefgfffeeiihgiihhighegiffffghehhgfgfgifgeeggfffegeehgifighhgeifeehfhigggieighgifhifefgfheghhfihfiiffhihgfgiigigeehgfhfgehehiffgggiheehihhfieegeggifgeehhgfiheigieheeffhigiiiffgffhefehggehgggifighiieihgfegiffegfffffehhegeefiififgigeihghhiiehehihefhhgefgfgfifgfheighfehefiifgefggihfiihgfigiihgfgififefgigehefhigfefghihihgefgfffhgeehifheihhggfhgieghehfeiegefeehgehghfihfgghehgehfefeihiigfgiiegfefegeheigieehgieigghehgiiihhfeeghefhefhggehhiiehhggeefiffgeieghhifiieghiihghighgf
regfgfeefefhiehhhgihfiheheegeigffiehheeigiihigfgeghfffiffffhehegigggiehfigieegigfgeghifgfgehgggfigihggfheghgfiiggiggfhiggggiieefiffffeffgiefeihgheeihfhghhfheifiggghghfgifhiehifiigiefgifeiffeeiiigggifhgfghiffhghhefgfggeeigeeffgehhfhfgffgiggiggiiiehigieifeghihhhfgfieghffeehefgiffeegeihgifgggehifiieggfehieiifhgieiigigffihefhiiheiggggghiighifgighfgggehgeifieififhhfhgggfefhgeehiiehiifihgeihhefiiggfgiiggggieehiegffegeihfgfhheghiegheieihgfeefhiiifffefgiefegeeghgghheiggfiiigfhggfhhhhihfiefigifgiegfiiihhhhihg
rifggiefgfheegififhfhfeieehehieehfhgfefeiigffgigegefhgeehheheefhifhefiggeehhihffghgffhfihiihieihfgehheghgfffiiifhgiiehehgiihehihgfheffeeghfhhhfhehigfieeefegiffhhihfgegfieiihhgeffgigefgfhghehfeigfggehffeefhigfeigiieihhffefieefiifihggeefeihhgigffggighgeihggehfhefeghghhghffheifggegeiiggfiieggefeiigehfhfghggifffeheieehfiefiggiffhffggefggegefehehighgfiighfiihgeffghfhhefgegghiehghgehgghhhhhehefgeighihegheegeeffeffieiihihfihifeiifhghgghhefehgggefgihhffiefhgfifgeefghfgegeefigffghieigfihffifiihggeghegfegiigfgfihfegiieehgh
rifhfefhhfgfhgfiigiehghheiigfgieggehgfififighegiifigeiggegegifihiiihfhieiieefiifefegeeefggehhiiihhhffiggeigghgeehggegihffhgggffhffigfhifggeefgeieefiighhegeeehhfeghhfifehgfiihefhifeffhfhehheffefieiegiiieeeffgfeeffhfiffefghgiiheheihiheeefhiehiffghgefihehgegeghhfhgfhihgghgegehgehgigfighfefheffhhihhhgefiheghggheffhhhhiefhggfehfffihheehegghfgeehehieifigfhiffgiifhhfhhhggheeeeeeefhehgifeegigiheghfgggfiefffighfhhhheeiheigeheegiifhfgihefffhehhefgffffigefgefifeefhifgeghhgefefegihfgiegehigihieiefgghiggheeihehiff
rfeihfggefefhgfeieeiegiehhheigfgeifhghggghheeegigheggeggeghfffihgefiiifhighfihgffhieehhghhiifhhihfeigggffhiefgfiggiifgfieeeieehiihefgeehhiefhieefiigifhihfeifheeigihgiigefhieefgeffiieeifheiheggefhggigiegefhgheeifffheiffiehfihighhfgggihhighigiehfieegffggigghigfhifefieefegeiihgehehgfeffghfihegifiegfhefgeefehiehgifgggghfhfheeifhhgheheghhihgifffhfhghfehihheifegheihgffeegegeheeiehigegfighhhehfegigfhefggegeehefhiehihgfiheifheehifhieefeggfgiieeiiiihfhhfhfiegifegheiifghifgeghfhieheighieefgiieigeegfiggfgghghhfffggegffgieihe
reffeeieiihfhfhifeegigefehffheifggigihiiiighgfghhihghhehffifhegeefeigfefhhfefeiiighggegeiffgiieiggeiefhhfiiggehfihffhhfggigfeighhgieegffigefgeifhgigfgfefefgfhgigfghfhfgegegifehifgehhgffheghiieffeiighffhheieeefggfhiiigehgigegeehfifggfgehiehghfhfeegegeifeifegfihhffffhiehehhfhfhhhhefhifighfhigfheeihiihiiggehfeiffefghfihighhffhhefgfgihihhiihhhfhihhgigiiggghheefihhefgifgeeghhhegfihehighfgfhiihhhhfgghiheihhgegeeffeeehihfggfegifffhihhiiiifigfiegeghefhg
rfgehgiihgeggehfiigfffehegfehihgghgfehghggggeghifheefhhfgfgghgigghhghfghefeeheggeigfggegfgifffhiiiheefegggehggeefiffffhiegeihfheefggigiiiighfghefgfieffhhfgiggiihhfeefifgfifeefhgigighgggifffgfgegigehhhfefhegfihheeihghififhgefgihgiigeihhfgfggiggegghgeeeegefifggeffggegeghgeifieiheheehfheiihhfhfegheieiggfhfhhghieifegigfieegefiggifgfegihegigheiifffhhiiefheehggiefegeggefhgihhhgifgiffiifiiihhfeehggeghgeghffghgeggfehffeghhfifhgheeghghheiiiihehehhffffiifgegeeheeefghiiieiehfefihgfghgfiiigiiefigihhhgghheiigeffgihgffhggehfgfgefehiegehi
riegfheegegeheifhgighgiiggfighehiegehiegiigefffieeghifeifhhefheeehghgigihiiiggfiiehihehfhhffgihggehffegfgfgfehfgeffihfefiiihhghgiheehhhgfefgfiifegehehffieeiihfhhfeffhfheigfhhhheehgeihifhhehfefheeiehiegfieigefihheigfggeghfifffhhfhghefggefiifighhfieffifhhgffhigfihieehgihfggfehifeghehhehigfffigfhgigfhgeeihegghhefeeighfffgefifihehfhefhgfeffifhgfhgfiegeggfhfhhffieiheffhggifehgfeeegeeiigiegighfiiffegfeegfgfehhhhfhfgghghehgeifeeighfiehggfehehfffghegghifgggeihefhhhhhegeeeeeihhhfihfigigffgef
rigigeifggfeifehiiighgeififhhfefegfhieiiigiihiiiehhhgiefeffeifgefheeeffghefhgggghghgfhhifiihhfhifefifhffhiigfhgfeeiieghhigfgfifgfifigiehhiegighgigfigihhhigifhiiieiggieefggegfgfehhiihgegiieiheifffhehefeeiihffhgihhgghfgeihhfifgefieghhggggehegiehhhfggffggigehiggefehegggehigiegheigggeifihgihifhgihghefheeheeeeefgifgfgfiiegehggggfhegfehigegghhiiffgiiiefhfgfefhiiehffhghiffigghhfhiegeiehfhegiiiihggfifghihehghighgieffhiehhiegeeihhffhigffeeiggiifighifeefigifgeighgegigegigigfhhhghiehffihefghgefegffffh
rfhghgghgiifiiefihhghffehhgfefghghfgeeegefeifeggfffiigfihhehfefhhieeehigifhgifieiefeeighgghiiiiifgihehefehiffehgfihhhehgifhigehhgefieheggfhegfheghhghfgiighfgigffhefihihiihffffhifhiieihgiegeghfgfefifieeeifhegeigihgegfeieghfiggffhgehgggffeefigeiffhihieegffgeghhfehfhfgihieifghieihehhfhfiefihighhhffegifgeggefgigehehfgghhhfeffhiefggghgghigfhghhgffeefheifeggeigfhghhiefheehiegffehhhhihiighefhffegefihiihihihfgiffgiegefgifeiegiggefefhfehgfgiehgihiieffiifhfhihgfgeigfgeehiiehifh
reehhfeheeiegeheieehhihhgeiihhehffhiieiiffeeheegggeefeheegiehgefhfegfeiiffiiheheieefgefeihgieheeifighhgfffgiheihgffihiihgiiigeihhighiiifhfgfhifeegfighifgeffegiehheehihfgeigifigefhgfgfhiiiefegghhghieiigffggffiiiigheegifighgffghgfefghgigfghfhgeegggifeiehhgfeghhhefhigghfgiifffhhegfehhhfeihhhgheehfigieiefehgefigiifhgiehhhfghhgheheihfgihehhigfhfiheeihhigghefheiigggfhfhhigeghhhfeieiiefgehhhfhiegifheifiiiiggghhhfihhgeheehhhehhifffhgggffffiiiggegeggeiefhefhhggiheieieiehhfigiiefhighfhhgf
rfeehgeefgihffgfhfiihfefggiigihhhhehgeieheiighfefgfiefhifiehihigiiefefghghiifefiigfieiifhigiehfigieieiiggiheffghhhgfihgiefieigigffhifhfeigfgheeihheghihhfgeggiieheifhhfieifeigiigfhehgfiffhhhhifeegeheiegghffgfhfifihieeeheehffhgeeghieeihfegiihfgiififfeggehefghfeffghgefggffhihgefighfigfiiggifigihefhihgeeefeefgfhgiifgigghghifggihehfihhgffigegfifeghfieiheeeggfgiifiiiheggggiefghegiehfeefghfhgeghffefhghfgihefffihfiihfgfieigfggieghiefggheifiegghhfgeehffgeifheiehhgggfeifhhffeefhgfiehgiefhhhgfggeiigfhefihgihfhggii
rgffeiiegffihieifhihehfihgehfeifieiifhehfhefggeefihheggeiehegghfigheehefhegfhihffiiffffehfgeefgihgifgfiegghghghihggieeifffffieghghiiehgggeihiiggfgfhggiifhgeheehhiihefgiifgeeghhifgffhgifgiggeegfifhfheggggifeheigigghfieefighgfgefehfgeiegegehhiiefifgeiefhhhifhfhigffhhhfgefhiehhfgefhfefiehgfihehffiigehghfihggfiieieeegehffiiheeeififefiheigiefiegfehhhheihfhegeieieggffeehfggehfgeighhiehfehegiehfhegfgififeffghghhghgihhihefghfehigffhggeeihiieggeheifefehiiffeieiefhifefeheffeifhfgihhifhiiifhfeeihgehh
reiiggihegfghihehhfgighegeifgeffgggfiffieggeigegeffihfihieihegieehfiihffghgfgiegfgffegifgeeehieehhiihehfegigfefgigfifefiffifgffgigihegfgiegeeheihffihieigfgfghfgfeghieeeegghfgiieeefffgegeieheifghifhefhghhehhiehgfghiieihgihhfghghhgfigeggeeieffihfhihghhhhfifgifehhiehgeegfehiiheihhhhfgfehiggfifiihihhiefffehfegifhiiefihghhhhiiiiegeiifhgifiieegheghhfiegifgegfiheiifhgigehhfeffehghfffhggegfhfiehiiffhhihfehgffgeiihegeiegfeigfifeeeeeieffefifhefghhgiegfhigeefgghiiheiefeheffgiffee
reeihehhefiihhhhhhihfihihefihgihifiefghghihiigihghhfhgehifggfiggefgieghfifeheifeggfgihghfeggfighgfgifgeeiehffgffiiehghhieehhfefeiiieheeggeffggghigffgfeiffgihiigeiihfihegifihehgeffghhififfhgggghghihfgegeggfgefefehiigffeihghhfgfgfiihhgeehigiehfeefgfgggggggheeghfgfifigihieeeffeghhfhgfeiheffgigfhggiihieheegfgifehfifhiihggfgeigigfeggefgfeehfifieeeifggiiehfgeefhehehfeifgihfegghefiiehhhfgehgffeiihffgghheeiegigehfeifhghhfffiffhfiihfefiegfifhigfffgehheffifiefeihhghfhhffgifhhgiigfegihhhfgehiffiefe
rifhgheihhhgegigieeihgfeggfefffieggeggiehighghefeehhifhfiffehgiefiehfihfihihhffigiihfeeefhgifgeifghighfhhghgiifhfgfgghifgfeeegihgihfefiheiefhhiifhhehgfefighhigeegfeegieffggehhhfgeefigieghefehfiigiihigihffgefhigegheghgghhiffhhegihhhegehigeihigeggieifeiegeeghifhhfhefifeighhiiefheegefgighhgiiegffiiegeieegiiihefhghgfhifhhfhhhfiegigiegeiifhghiggeiieeghhhhgifhfieheehgeifefighigeegegeiffhggfhffhiiffieifhfhiegieiiggeeheigigfgfefihgghieiiiigefhghggfgeeeiefhhfegiifieghehgiihgfige
reiegifgggehgeehfiiehfigeehififfffihggheieeheggighfgiefiefehegefefgihefeeghhfeieeegihfhegfiehffegeigefghehhfeigfifeiifeigfiggggfhfeeieeihehhigffhgeeegighhigefeeihhihhehihfeghfhgihgfgfggefihgeigeeehfhiffeifhgeggifieehgfggeiggigieeiighfhigggfifgeggeffgifgffheehfgeeehefeihgeefgifgegfieeghiefihhiehheiefeifghhfighhheeiiihiegieiihifiigifefieieghhfhhegieifihfheigffifeefiighiihigfiifiiggfeiieeiifheihheigheigifeehhigeihfheheiigifhieheihehefghfefhiggeegehgfefefifhifhhfhegghegehiieiigfigiihffhgfihfgfgheiheihfhghihhehefghge
rhiihiegggegiiihiehiigggieigegighhffiihfhfeggighgeihiggeifgfhfiffgigfeeeheigggeiieiiiffegfggghifeeeieffefegeieiieheffhfhiefihgefiggghhggeegeeifggheffhifigeifgefighhggghgieihhhhfhiiieehhggfiegfigfgehgigifhiifgeefigiieffihhfihfegfhfeggfefhfhehfifeehihgggffgghfehigefifiiigieeefhgfgefigggffggfefheiihheegfehfhfefefgfhfegggieghiigehffhegehfhffifigghhgghffhhfihfehihfigfheffighhighegeehihieegfgeeeheifeegfiifgffhheheegeieehfgeiihfifhihieehihfghffhfhhhhifghghhgigighihhfhgfieiehiihhggihfigigeef
rfiieggifgegiehgiieifiefggfhihhhiggfggeeifgefeggiiigfffhhggeeghiggeiihieifegiiiefehggiggffihigifefefifghgieffgggigfhhhfieeifehggiieieiiiigfefeieiefghgheigffeeefifgfegfffifgfgiegeghieefgggighgifegfieheifigihghfifefifeffiefgfgiihhihefeihfihieghffggfeehgfgihfegffgfigehhifeeeehhggeihhfigghhggifigeigeihhieiihihfiiiifefhhfhggiiifhhggieiifeeffheeighieieggiihhfihifhegggeigfggieffhgfgiefigfghhhiifgheififgiefifigehgeheigihegfghgiiieeffgehfiiehiheigheigigfefieghfghgehghifiighh
rieggehffggiegfgggfheffgigfefhffgfeghfeehhffgghfieiihgieieefefiiigfehiehghifeegiegfefeefgfigihfieeihffihihffhheeghhihheefiifihgeefefiifeegfeehhegfieifhhggifehhgiiheeiegffhiihifieiehgeeffhiigfhhehefehefhifheiighiggggihghhiffifggegeefeiihfeghiheheiifhiiefgiiffifhigeefeffifgehhgighhggheeiifhfghefihiiiffhefhehheghiihifiehgfghgigehhffffigeffefehefhihgehgheeefiggifefgieiffighieegihefhieefgiegffhfigfegihfhghhgeegghgfhgihffeghefggiifhhehehgihihhgeihifffgheehheggifgiffifeefihifefie
rgghieegeiiefhhiefgigighhgefhfheeehihhhegggfheghfiieeffhffffiifigfhgfgiifggiiighegheefefgfgfheeeffihehifehhegeeiihfeefhiihhgheiefhehgfgiiefhgfggehigfgheefefgifehhigiffehhheiggfghehhiehgeiiegeegfghiehghhgeegfigigeheieeeggeiigefhigfhggggiifiiehiehhgffihhehgefefeiiefigeheiighighigieheeiehffhhigiiehhfiighfggffihgifgeegeifhgghhfhiffeefeiheefieihffeifehifghigfifgfhhgiigiiihihhgfihiffeiehhhiefgfegeifghghhhffeegiffggeeefhgfffifeighhgeieegiegffigffhfhifgegeffeehhehefheiihfffgegeeefifhfifgefiegghg
rhieghhffihgifgigifgggheigfiieefiffhiffhhggghiheeighhhegefiigfghgfhfiefgghieehgeifheieiigheffefhfigefhhhgiegigiiihfhheegfgeggffehhfihfeegeighihiiiiiifieiiefhfiffggihiggehfeiifheeeggighhgfheeffgihgeeegefgeheehheeeieeeifhggehifhifhiffgefgffhiiefhefegififfihihighhhigieegihfhhghfeihieihhhhifgheggfihifehifheefheghfigiieihifgfhfgefffffhiieihhfefighffeegiifgigeihhhfeheihfghieihgifhiggfhhhgeeieiifighhgfheehifghggifegfhfiffeheiefheeegeeihfe
rgieiefiheefihiffgghheieefeggehhgihgifhifegghieefghfiggfeihhefhgehfgfghhghgfgefhiifiihefhfiegiiegfgiegigeheghfghhiiiifeiggiefigigihghifigghhefheggifeefhgeeefgihhigfhiehhifhgiiiheghehhifheiefhehggffifieiegefhhfhiifghihefegifgfhheigfefhigihghfhgihgffegfihgffgfhgheggefiefheiggfgfihfhiehififhehheeegifigeiiihefeffhieigfghhghffeifeheiggiffghiiieheggiifeiiheefihfiheigfehfiiehfhffgeeieieffgghgeifghefifgeeghihieegefgfhhiegghiifigfehgghe
rfiiieiggfegiiehfehfigghffegegeeiffeieghheegihhgefiieheffghgefifihhhhfgififggffggeiifffghfieifhiiggieihhfgehhhhhiigegeiggihhghgfeeggfhegeghefheeghgihffggfhieeggggeieehghhiifefeheihfhhfffghhgffihgieehefgfggiegiihhifihiffghiegigheeheffieehehhgfffigfehhiiiehigifggheegffffffhiighfeefhieefiffhgegefheiiheeifieeifefgfgefifgefighfhfhggfegefhghghhehiheegfiigeheggigffihiffiiiiihiggggefeieggihfhghfegefihfeheiffgeifgggieiffiiihggieiefhhfheefgifhhfeeeef
rhfhgghiggffeifeeifheeiihgeeggffeiiiigefgigihfifegfhgegehifgfihhhiigiiefheeiffehiffffeifigigfiefiifhfffffheiighehfiggheheifhfhieegefffigieiegifhgegiegeeifeefigfigiehiiiihihiefgghfghhigiiifffiehiefhigihfgiiiffiefihefegghhhghffhififeihhiiiegeeheifhfhfihifhhhhgfgfggfgfefhghihheiifigeghhefhhfegggihighgfgegefiiggeigiggffffgfiiehgfhgefiehghihefifehfgeghfifghhhgiffigeggiefhhggfiggfiiehehehghgffhhhfegegeegigihehefhgihgeiiehhgihggheiggegigfgifihihgefifgefegehiihfihiieehhgeiihfieheefhggeiefeifghihiihhigeihh
rgheehgfhiefeegfeeheehefhefeegiefiefihihiifegefgefieiiigfeihieheiihiiiiheehggffggfhhgieiiggegfgiggehhifhfghheieheeheifiehhggffhehhhfigeefeefihfgeeggfhgihghehgegefeehggigheghgfhgeehheifgihgfffiggfeieiihfhhhiggiggighgfhhifieefihhfiieiehhfieheihigfheifiheghhfgfgheighgeihgghgeifihfeihhggggefihifihigihghhfeeefieeeehhiggfgeggffgeefffhiiiefghfghfihfeeighffehgghhhffiegeghgfigighefieghehiffgefgfgeehgeegefiihfgeihefffehifgieiegfge
rhehegfiffhhfgiifeefhiieeiffggeigeieghfhifihfhggegefhihhfefeigiiiffgiigefhhihefiihegghfheihghehhhigghfgfefeehhihffefghfieehhgffegeihgfiiigihgfhfihghihhiefggefiihhgeeiifhffeiifheegffgefeifegeefiihfhhihfffegghiegefigiegegfhiggifeifihigiighifegifhfhhhhfgfeiefgefegfifgeegeghiffggihhhfefhfgefihfhfhghhggefefigfifiifefeeiigeegiihghhggfhihfeegiifeghfgfffhhgfghffheiehiifegihfhfgeeeeffffeegieifhfeiiiegfgfififeghegfiegffeghfhgiehhfhghhigfehfgfhiiiggghieheeeifeigffeighehhhe
rghgfhiheiiggiheeigffheiggiiggihfhghhhheihhfihhggfheiefiheegheeieiihihehfhggfeiehhhehifheffehhieeieiifhgfeihgiehihhiefeeiheehfehgfefiheeeeegffggfehhhehhhehgihgffgegeehgghgefigegheehfhgfffgghieffhhffhffefeifgfigiihghgfiieeeehfhhefffefgefeiiihefihifffgffehifgghefiegigeifgfgggfghihiffefefeifhigeeffigehihehgfffefghhhgefiiiiehfgegggeehhefhhifefhefhihghifhieiieifiihiiegghgeeeiehieffeeehfeeegfhhefgiffifeffegiegifefheggegiihhgeiffhhgihihffgfehefihffgiegheehefigfgfffefigheif
reegfgieffgfgiiihihihegfeheihhiihiifhegfffhhfihfehefhegiheeghihhfgeiiihfehfhgfieegfhghighefhfeggiiiihigeghifehfeegeiheghehifeffgeghefgeheiigehiegegeeifgiehghfiehieifgihgifgieifgfiiggfiigfghggihieifegefegehifggeggihfhggehfigihgeggighegeehggeiigiehiggegeiiieiiihififeifhhhieehfgieifeiighhiihhhifgeghfegffifeehieeghifgigfiefiighifhggghhfeefefieigfgifiggfhhgghhifehiihefiifehgfgefhfeeeiehfifeeeehiiifgheieehigheggeigifhhffhffhggefigfihhefgieggihffihfgfhgiffhihih
rggiffiihfifeefhgghegihiiggifeiiehhffeeehghhgfffeegifgigifgeihfifgehigegfeeihhgeeieggiifgfihfeghiihhieeeggfghigheggihihhggfiiiiieggiihefgfhegefhehgegehgiefifehfigfhgfieigggihgfiighggefgfehfegehhhefigeheieeffihehehhfggghhgefgefefhghfihfefefigifeehegehgiheghigfgfihfighhiiihffififefiigieiiihgfgffehehffigeehfhgghehhhieihfeeggheghhgfififgggggffgffgehgeigghffhefhghehgfgifehihfffeffgieffhgihififiigfgfghhfhfifiiieihgeeeeifieehfigghhggghgeihghgiihgehigiehggfhhehgieiheheihgigg
rieffeehehfgeeefeehfeiigggfgifihggfhggfggiiifgeggheegggfiihhgeifgeiiigghfhheehieiieffieeehfihgeeiigffiieiggehfggeieiheiifghfiiifefgigffffhhfieefieeehefiiigiefehgigighfhhifggfhhiihgfihefeffghifghheffefgghieihiefffhfhigegfhgghgghfhhgfgfgheegeifhggfhfheggigegiehheefhhhhhfeeeheifigigggfgihiehgeiifihgghhifehfifgfeeeifgeehfeghfgeeeiiegifiiehegfggfgffihiehgieffghgghfheegghiiifigeehehhghghehihfhgiiefighifhhighgifgiiigfhhfihghgiigeifihiiiehgggeifefehfheghigghgiihgehhigiif
rhfgeiifiiiefheffhiegehgefefffeiehhegihgiiiggihegeeggefeihfgeifgggigfifgheggiehighfgfggeehggieiiiefhiiegiggeeeiiegfffhhiiefehhigegeefhiggfhifiigigeehiiifhiihfihhfheihiifgheiiihgihgeefgeehhfgfgfeieehifhefgieehgeeggffgieegigfegehiiiggiffihfgeheefhfhgfighfhheihfehhigiefhhfefhegfgffeghehhfegifigfhehehhhfheifghheiegifggiighgffighgghefgehhfgffheggfeeiiifigighhgeffgihgififeeigigifihgefiggfgfigiefheiiheehgghiigeegeeeiegeghfgghhghififii
rifgegfeghgghfihigfeffifeifieiheefiehfheieieiihhhfeigfeefhifhiheeefhfiegifghgehegiffeihhgigghghegieheeffieefheggfehiiigihffgififgegggeifefhhfgeegfigeffeeigifighiihfighghfefhhfgfgihfghfiheeggefihieeigeeeiehgefeiifiggheieghgegfeehigfggeigiihffiiggfgggggfigegieffeieiffgefggigffiehhiggehghffhiihhfhihgfffeeeiffifeehghfffiefhigfhggffiggiihheiihfghfefgffggiifhghghifgghfghhhehegffggehehgegfefigfffheifggfegigfeehifheifghigihfeigeihfhhgfgfhihiggefififfheghiiefiiggeeffiiih
rgehfgfheeihegeefieiegfgghehhiifhgiefeeggieihheiigieigiffefiihghggehiegifehehefghgggegffgighgifihhehhgggggieeeehhggefefeeeigigihffhfhghfiihfehiehiefihgihhiggegefegigggigheihgffffegfggighhfhhgfhfghheggeghhiieggeehiiihieiihfehggfhihgihfhigegeeiefegiiiehigegfgiiiighgefigfhihggiifehgfhfehhfgihfieehghgfgeheigghhiheehhghfiffgigifgheeiiggfgihgiehfgfieehihfhghifeghgfgefhigihiifefegfgeggfgiifgfhefgghehiigghffiihfhehegihhhfffgfiffgfifefffiiehghhgfifgifggghifheig
rfhfifgegfgeegfgeeegffihfihigehgghhhiehfhghhiigffihgeghhfhgfhgegehefeegeihheigfffiehhhgehfhiihffhihhfghfghhgeehfiefhfheigehhhgiffifiiigfgfhifhegifgeggifieiggeehgfifgggihhhffeheifehegiegeiieeighhhfghgefhfgegeiheieihefhegigfhegihigfgefegfgihggghffeefeggiffgheeiihfifghhfhfighghfiheghgfihhiefhffgehfffgfifhiefheghgeeeiffhhghehegffhiiihggeefhghffhfhigighfehghehiieeehehhgihigiggfefeeehhgheeffggfigffeghfeieefghgeeigigeiegeffggheeigghfhgfeifhhhhififhifgfiiihgfifefiffiefhfihfeggieeeieghi
rhghfhifffeheefehfeihgiggfehfgieghehfgfghfgehighggheigiheiighhiefeegggfgeiifhfiehigiffiifhfihggigghffgeifiefgihgiefgfhhihiigifffegegigfgghhfghihhghfeffihgfgeieefggeeeiihgehgifggfiieghhffgfhgfigfggfffeffhehfhehifefgeihgehfhhhigefehfhefieggggfhgieieffeieeihehfhiififghffghieihfihfgfhgfihgfghifigghfhigeehhfiieifeefgieefhgfiegfeeghggeieheieghfgfifgggeeffeihhfffihhigeeieefehihgeeiieehhgiieeehieheiiehfgifeeghhggihighhhgihiiiihehggfeehfeheehhehhfgfehfif
reefehhhggggiefeefgfigfiiefihieeiehffhghgifgfiihefigiehefffieffehfhifehiiffggefifefghgiiheeihifggihiehhffiihfghggfgehffgiihgeifgeefehiigeeehgehiiegghefgffgfehfhegefiihfiheffhheegghgfhfgeieeehfhhgieegieghfgffgefhiifehhehhghfgihfieiehhhiffhehfhhefhhieiehifehgiiieegeeifiiigegegifgehfehfiifhefgehgghffigegiiifeghffghieiefggieigigfghgihihgfiehiffffhhfeehhiegiifgfiieifeigfigfgfihihiiehifhieeegfggifhiggffiiheegfhfhefgggfggieefiiigfgiihehifhfiiigihefghfiifiggfgigiefiefehfhhgegghgeehffgigefhiggeief
rgfgeeeegeefeigggehgefihihfihgiiihhghiigfiigifihfeehffggiefigffgfffieehiegffhgigggehhihefifigghhififfhehghihfieehgffiifeeefegieheegieggghgefhgfhegiihhffhhfggfhehefhihhggehghgeefgfegghgeifegigffhffhihhgiegfhgggeifgghehfgffiggieeigfgieefhheggeghifhigifhgggghgghfheeeehhehfiheghhgieghefgihfifiefffigfgieeieghehfeeeeffgeehihieffheeiefigegeighgghgifeggegheieiehigefhfifhigfiieifeffieifefefegfgifhehgffhhiigeiegghfiigfheghgigigffeegifgheieffgefhihhffhefgfihigifgheeeffffigfefifigi
regehgfgegieiihfiigggfgggghfhifhfeeigfghfheegefifffiieffgiihhghfhheefghgheigfhhgigfhggfgheeheeihhghffifiieggheeighigheihhfghfhhfehgggehihehhhhhgiiigghegiiegeehghhfheeihgggghgegfifeefgfhiieiighiihefghhigfgihfhighfffhfeifgeegefeegiehehfegifgeifgggghihffhfehheeeifeeifehghfhiigfhiigggfeiffgifieiegehiifhgfgfhfigghieifihghifgieigfeheffigfeggfiiieiffhffhegfigghhggeeefifhfeieeigfgiehgehifihfeieiifihghfieffegigieiggigfhfifhhfgeiihggifgggeihieheiefhfi
rghgefihhegfgfheegeeihfigffghiiifiiieegiefgeigeieegifeehghegefhhegghgfiegfehfghfeggfgiifhfheeihgffefifhgehgfgeigifhggihghigehfgfieghhegheeihghggfhiiiihghfihgieffiiigihgiigfeghfeigiifiighhfghihgehiihihghggeefgeegfffeeihhifggfeggigheeigiigegihfefgfghigghggigfhfighffeegehfffgggiefeffifhheeefhfhggfiihfggheieefghfhieeifgffeeghiffeeggeieghgifihgiieiifieiighehififefhiffehefiefhghefiiheehhefiiggihfffififiegeiieigfhgfeeffiegfehgffheiehieefifgeehehgfehifffhff
rggheiggghhegihfeiieghfiggfhhffghegeiihheheggihihieghhhgfigfgheehghiifiifehhfhefgghgghiehhiefihfgfghiggeggeeeefggfgeifeigiehieghfifefegeigeihhhgiegfieefiefeeeehehehegfigfeegighfgiegehhgefeefeggffgegigeiiihihefggeifeghfieeihgeffheeegeegefeegieiifihffgfhffeiifiigiiiffigfgfeggfegiheffheeefifefeieihffgihifghhiegggfhefhggeighfhhfhfifggghiefehfgegehefeghfffhfffegefigeihehhhigfhiihefgehefhfgiffiighighgehgfehiiiighfghfffihehefgififffhieifiegeifegfhegieefhgigggfehiiieegffehghigiggfiiiggfge
refhfeegfegifeffeiegiefgifffheeeeifhifegheffgggiihfeehgifigffegfiegehigfifgieihiigfigieheeifghihhfefhiiiefhfhiggfiiheffehehgigeifehfegegiiegeefffgiffghighghgihhgfigegfihghhggihiefegfgfiiefeegghhfhehhhghfiegigggiihffgghhhheefiiiigieihfeeifghhghfefhhihhiieeeiffhhhihefhfghiegihggfghggghhihihfhfegigiiehgififiihhhgeffhifheifhefhfeieeghghiheehhfghgihhgfhfiihfgfhhfiefffhffefffiieeihgeiefheighheigghehhhfhigeeheggffiehfeeeghhgegfeighghfihhfhiifgggifhiffhgfggihgheehfhgfg
rhihieegefeheffehhggiefihhgigfgigfifiieieeigifgiffgefhifiigfeigifffeghfiiefhfegiffiigfffghgieiifgghieihifiiefiigeihigfgiefhggieifhhgifhgghgegggifhfeihifeihgfhgghgiiihghhiiefhfifgfhfeihghehhigigghhgefggggefeeihfgfiiihiihifehhigfhiiehiiigeffeiffegehffhegiigeheiigfhffihfefhiiieffeiifegeffgfghgieegfieifhghhheifeieffihifhgefiffehgfhhefghfehffegiiehifighfiggeieefeefghfeeihiighegfehhghiffgieifhehiifeigfhfheihegheefigieieehhfegeihhigf
rgeiifeiiheffihffihhegieigeggfgheieifeigefegefefehigeieifgiehhhhgeiheegffhefieifhfiigfehhihhghhgigefhegfhgegiihheiiggigefgeehhgghehhehihgiggfgghifffgeiheifheegeeehgeigeffggiieeghfiighfifiiffiihihfhfffghhhifhfigeefefehgfehefgfihggfheiieeefhfehgffegihhfhfgegieiffehgiiiieggehfhfggegfieihhhgeeiiegfihheeegeefffhhigihgefgifhiggifeeehgeffhfgfhgiiifgifefghifehgiiifihheehiiiggihhgeihgffhgiefgighefgiigihhiggeehgggefhhi
rfeeigfhggfihehgeghgfhiiehgheehfhhfighgegifgfefgiefeefefigffifheefiififeehgfeieifgifeiiihgheifefiigfeifeifiigihhfiffffhihhiiffgehehhiefeheieiihhhifigffhiegeighggfehhfhffifhhfhffifefghgiheheheiihgeigfhfehiffeiehehgefiehggfefghegigfgefgfihiiigfighgfiehffeefhgeegfigigiiehefgffiiheeffggfiegffghgfhihihfghgffhfeiffeieiffeeghgheefifeigiiieeehhfeffffgggigfgfihigieifgeehfheifffgihegggfgeieeiiieiffhfiiggiiehggiggfefeiffihefeggffhgeggihhihehhegiehfffgggihgifeeigg
rhfhhfigggegffiiegggifiehhfehghggfeehigghififgefigehifeiifeieehghhhfigeggffehfhifheggeffihhiefiigigffhiefeegihheihgfieiefiiffegeigfheehhhiggifieihheheefigeggggiiigffegifihfegheeggfghghggfighehiggfeigfhfiiehffghgfffihfeehfghgeeeeihhefhifheighfhgeggfeifhgfeighfhfihiigeiiefehfieifffhifefhfefghihghhffihhhhhiiieegfegieehfeieeiiggifehfhfighefhghghgfeiiiifieehiiigehhhfigiihegiggheghgfihhfefhihefhfgfeifgehifgffgeffghieifhihfeiihhfhhieeifhfiieefggihieegehfgigeeehe
rffeeihhiiiighhhhiihffhiheihefhehfgefgfefgffefihehihfihiiiifeehefefigifffgghefheggihgiehhigefefhfigehfffheiiigfheefifhifefgfihfeifgigiegfifefehhegigefhgigihgehfffehgefefifhifhgheffffheigiheiefgggfeegfiefffeeegfhhifeeffifhfgghfihfhgfhhifeifggfgfhhiifheiiiiifeeghgehefifeheiihhihghieeffgeeeeegegeeeffhifhehfhgfehfgeihgifgffghfihhgffhhfihhieieegihfhggieegiheehhiefhehihhhegehggfeehhfehefgffgfhghhifgiiggheeggfhiffeiieehhifegeeegfifghhehehghhfeihiefffieififfi
rhiegfigiihighghehifeehffeeheiffghgfihfegifiieeeeffffiggeeggifhhigeeefhegiifgfhggehefhehhgeiefgihiefghffieehihfheiigiieghffigfegeeheeifggfefeffehegifegehefehfiighiigghfiiiigffgffgeffefhffggghfeihefffeeffeghgeffeigeefhhehehifggfhfgiheehgehhhfhgifggfeiihgffiegiffhegfefheiggeihhigffffihieiiihhhieggghehhgeeiheeeffhihfhhgeeeehfeehgefeeegeiggiiihghfeifgffeffffhgeihfieegghihghfeigeefefgegfheigeeghehigegfhfgefhiihefiefhffhgihhfihihgfgeehiggghheiiffgiihgf
rihffgfggeiiffgehihfgegfgeehiifhhfffehiihehfhgifggifiiefieeffhfefihhgighigfiieehigeifgggiiefihhghheghieifiififiihfhfegfggfhfghieffgifefiieeefgigeihfgihihhgehheigifhfiggiehgiiiiihghigiggfgegigifeiiihieegiihifgihehhihehgfgiefeggffeehfggghhhegghhgifgihefieiigffegfeefhgiffffefighgfgggfgiefigiffhgffghgefeffigegigfgfgighgfgiehigiefiiffieihggeififgfgfffheghhfgiheigfgihhgfeeeffheggifhgfhggfffgfgfiiehheiegfihifghehfigfffhigeegfgfiefifgfihihiff
regiifhhghgfhehfigeiefgigfghfggiifeeihhffhifeeeiieeiigihefgfefeigeeffeigeefegfffhhhgggfgeeehfggehihfeieeifhggfeheheighgehihfgghggfhighfgeffihfgegeifhhfihfgeihghfegiehhgeiiegfefhfhiefeeeieigigfifeffeihihhhfegeggfiefiegffeeehifhgheffifgihgfefhfeiiiffehhghfheffefgfgfhgihefifgeghfhfifefefggehgfgeihfhiieehfieegiiieefhggeiihhfhigfegfiifihfghefgfhegfggiifigighfiheeiehihfhfgffhiffgehhffhffeiifeehiggeehhhgiihegieeihfgfihiihefeiggheihhiheffghe
rgeffghihihiifeighhehiehhheiieefggieieeeieihheieeggefhefhhhehefeghhiheigghgfeffehigfihgifeifehhhffgihffffeggfeiifigggigegffgfigghfffiigfifeggihhhefgeeighgfeifgggfhggheiiefhfegeeeigeifhfeeefeiefegehiiiihhfeghegieiehiiheffefghffhffeegeheeehegeghefhiieffggeeefefggfeggeggfegfgefeeheeihghhihfefigifefhiiiihggefgfiiheihhighfifgiehfgfehhefeiffhggehgifgihegehiiiggfegihigihhgiheifghggiggfihgegfgegefeihfefiiiihghhieeiehehffgghgihhgef
rhgigffhfhifeffifeifheeefggigifeihggfhggfhifeeghgigefghggeiffegefiigiieegfighfhhgehiifhfhghieggfhfegeeihhhgigegiggegiihifhfhehfefgggiighgigfgffihfhiegiiggieefefheegigghifefghgfifegefhghigeeeiegihhgeffghiiffghghgifegeifeghfgefehehghgeghiefgefiigfhggeeihfififiiifghifghghggiffhiehfgehghihhehigfgeehieeggihhhgieghggffeeeegeeihggfgffefiifiieiigihieeggggfighgieeihgiihefiefeifihefeihigghiegfehehgfeefhfhighgfhhheihifeihehigffheiegghifif
rigiiggffhehhfffigeheehieffhgghhhegiggeheghehihhhifhifiggheigeifgigifeehgheheifeeiifeehehffffhiigheehgeffeihighihifeefghgffiieehfeeieeeheffeeffefihhfehhheiggfehighigeghieeffhgghgefiifhffehihiheggeifhhfeghhfghheigffegghghhfgeeieefheieigieegheghfeeeihgghfiiffihiefheefffhffheifeehieefihfegiiehfhfgfieggfegfgefiheffieigeffgifhiigeihihiehfghihggiefgieihffgiefhigigfeghhegffeehgefigfheieihgegfihfhhhffefeffgghehiiehifehegeiegifghfefhfhgehiehiegfhhheheieiighhihieehhegh
rhfifgieiiegihghihihhgegigiieifihieffiieeiifhhfihgigeifffeegffhfghhhigfiheghihgiegfghgheihihfgihegiifeeegghhghhgeighieeefihifeehgigffifeffihighfhegiggghieeeeeiefhfghiifeheeghhfeeggeihighiihefifihfhigfhiheifhigfgigghieiiheeihgiiehhfhhfighigggffehiihhehehieeeigeefihgeegfiiiegihhehihhfhighihgghhffhhieihgeiiiihgeigeeeegeihgffhiefiffiihieefgeegigiigiigfifggiigghefieffefiifihghhieghihighfiiffgfgifigigfeigifegegieheiehhfgi
rhfeggihiefeeggieifhhhefhgifeeeiehihfeheefhfhegfgfieiigghhehhggfeifffiigfgefiigfefiihfhffhgfefghghiihehfgeggieeehifhgeghhiefeiihheghfgiegfifhehgfgefggfghhefhiifghfheeeiheggghfeehfghhffhggfhhieheeeghifhgegefgeifiifgfiiefeiggghhhehghffhehfghhhigfghfhfiheffgffgiiegghhggffgiggihfiiieheeefehigghiggheighgihifihihgiififhgffhffheheeefghhghhegfgfefghghffeeihhghfgffehfhgefegigeeeghghgheiihgffhegfehgheigeifiihiigfgffgeeeihhihhehfiihfhfeiefegeihgegfgiffegehegihhefihiiigfiihhi
rfefiihfehegheigehihighfgeihfgieeigefghfehfheehgegeggehiggihfhigehifegiegeegheiehfgegefiigehfiehgffihefghfffggfghiigfgihiifghhegihfiigfgeiegffffgeifihiigehgefiiieehghgggighheiehehghgheiggihhhghhhghggegfeefegiefifegheihigfeggeeiiihifiehhghiifhehffhgiegeeiggfiheihifeiiiihhgiffggfihffehgehhifihieifiegffhheiiihfhhiehhihfhggihiiigegefhheeifiigigifegfieihihheiehfgehgheiihehhiggfgiiffhgehefiefeifehfgggfgeiggfefgiehigeiihhgfefgheeeighgigfhehegieghieiheiegiiigfge
reihgiheghhihgieghgfihgfegeffhhhieghfeieeiehiffhehgfhighheeeheeieghfiigghgeihfhegeheiffehfghhghigfgfgieehfgiiefhgeihhghhhefhhigegehifigggifffighihfieggegiheefghhhgfgiefehifhffiieiighiiihgeffhfigihieifhfhfgffifghheeeeeighegigiheehggghgeehfieeeefgghifegighfhfhfgeefegffeeggeiehhgfgfhiggiehhhiefihfhfiefihihegiiffefhgfgiiehegifeeiieigiifiifeiigfegfffegihgfieigfeghghgiiigeehifhhggiefeefiefegeefhgfeheiggiehhffgehgfeeiiefiiffgiihfiehgeiihgegeegiigihgffhgieie
rfgieegiefieffghifihifhhggfgfhfiifhgfghfeghffffegfehgehfgehfeegefeiigggggefhfgefhgfggeigggeiigiggeffhhegfheifgefiiihfhghgggiiifhfefieghfghfhghehiigeiiehgeghffggfeihigeghheefgifhhhigihfiggehfiffheffghieefhhefheeheifhehegiffeeeefhgfgihhhhfigfiehehggfgfefhhfehihheegeegihgfghfeffgegegefeeiehhhheehegeifggeheeffeffghhehhiehgegggeieeihefeegefeggfifiifghifgihigeiigeiihiigiehgeifhihiffeiieieiifhihihghef
rigifgiegeeghfghgiiheffeeeieiggegeeeifgghgffiefhefhggehiggffeihiieiefggfieeefhihfgeeihifhfieehifhhfggfhifhiigeghehfiheffhefehghihgfehiifeffifhifhefghieffiiehgffigggfffhgggfeigfieegiefffehegifgfefiigehigigfihhihgiehgihgfhfigiehefheiieffheffifieiigeeifhgeghggfeefeeffhgfghghihgiggfiefhhhggeehhfhhefhgieghigfhhfhieeehhegfggiefiehgiehfifgfehfffghfihgihhggiiheefifhgghhefeehffefieehfhfeegefieihfheehfgfhgigeghgiheehihihhehhffffihigffeeggfffegfeeefhfefhhfifif
rggeiehefhiifeiigfiiegegehgfghehfifgefgfiggfihghffgfeghgeeehfefgiifffigehfhgiehfheiehhiheifffeehigiehihfehegihhifigigfgefffghigihgeffeihhfeigefhehgiifigihggiiggfihifihighfifgifehefegifefiiehhighhegffiggfefefhihefefggihffffeeiiefgghffffhfifghheeihhehfgehggghhfhgiihghhhgghgehhghfggifigifeifhgeiiffgiffhiffeiheggifihfegfiefghefifeegfiiiefeefgiffhfgheeehfgffeegegfhfghhhhhehhfihihiehihihighffehihgghgeihegfhhfehgeffegfffiigfifefeeifighheifhiiffgihffigghfigef
rfefgffigiffhigighigfehgeggffffgggfiegeghheheghgeifhifefighgifehhfefeghefiihhiefhiiieghiffgggifhghiieiiheefiiieihffheieggiifhgiggefhgehgfehgiegggeggigfhffifefhhhfheifeehhigihfhhieihgigeihggigegehfihhgfhegfhegihhheheggeiffgfiiighiffffhhgfffhiefiehhieieghhhhhehihfeiifihgehfgigggghgfhfegfegghfggighefhihfefeieifiigigififehegeghgghefiigighhgifhheehefgfiehhggfeefefefhfhhfhegfhgfhgeefigfieiegifgghigiifegfgifigeiiggeehiggfihihgg
riefihfffegggeiffiegihhfheghiehieheifiegihffehihgieheffefhegehfefifihihiigffggifigifhghfghhgigegffgfegeifhehhgigiehggfhifhieeihhggieigffgifeffgefggfegegefihegfefheheffgeghhhghgeghgiefegfhiefigifefhfieeiiifihhgffffghhehefgiefhghheihehiifigehehfgggghegiiiffghfeheehhgefhihfefiiiffgifhhgifiggfegheggeieeghgfhfefiieegfgfgheefeggegihfgeeegfeefgieigiefeegeehgieefghgiehigfgghiheheefggfiefigggiififeifffeheegiehfgfeggfgeffg
refffeefghihhhfhggfghehigeeighfehihifhghiiiigehfgfigfgfiegeggfgfefgifggeffeehefeheefhfgeehghfefihhhfgeghgihgfehfgeggfegihegigehgefhhiehhfgeiieefehfgehfheeigehigfhegeieihfhifiggihfigiiifhghhheghhiigehgfhfighhhgfgfefehgifeeighgggfighefifeieihhhifggiihhihgiifhfggfeggfegeghifgeiiiheehiegeihhheeigifeeehiigghifgfeiheehhfhfifigghfhihegeffgigihefghfhifigeeeiggifgefigffefeegiehhfffehgiehifgheegfifegghhehgfheiiiffieeiefeeieehhfefiiiifggggigiheeiehhfihfifhii
rgfgfffgiefghhiihffhfifiigeehfiihfgfieehfggfgfeegfhfhgegihgiiheifiggeghhfeihifihigigfgieehffgighhifefihhfifeeeieeegfgiigggeifgegfhgeihhegfhhigefgiieheifhggfiihhgfehiefhfihgfhhehhefhgihiieehhehfefgegfihifieegheifefhiggihgihefiihfhfegfghfieffeiffiefffiffifiegggfigegfhegifhfgeiggeeiffgfeffgehhfhehiihiefgffighghhhiggggeiiegeggegifhhffeigggeigfihhhfghefeifggigfeeiiffhfhghifieeihhfhheiihhhiefeggfiiigiiefgefgfggeegg
rigeegeeighfhigifiehehhhggeeihgfifhiieeegefeffgiegggeheegheffgiefggehgegihegfgfhieegehggfieihifiihfighfhgfeehhieifiiihiggifeiheehfifeeiiigiieeifgehfhgiehgfighifihgffhgeeiifififhgegffgeheifhiieifhefhgggiefgieeieiefigfigiehhgifeehhiggeifghfeihigfhighhiefggfiihieihgeghggfigfiiggeggifighfhihhehhhgeehihiigfhheghggiefgihgefhffffhfgfeghfffiihgifiifghgeeehhfffgeifhghhhffheegehhffeiihfihegehfgheeeefhgghggeigeeihfhfhifhhffihfiffeieifeffhfhhhgfegihhfhfifhehi
rfffehehiifgeeeeiigihggfeifiifghiegfigfhfhehegfifhhgfhhhifghifhhigfhehfhfhifeegiehfhffggefeieehihigeieeehfhhhhgifegiiffiehheehfheeeiehgeiehhhhifeheiehhefigggeggehighfgghgggghehgfigfhihihefhifeiegghigffieihfigihieheegeeihgghfggighfhfgfeggfiheehegihgfigefegeifggigihhfhehieegieieeghiiieghghiifeigeghhhheeegfhffhegegheffeigfgieiiheehhehigegehgfggheefheeefhfiifgifehheieeheiehhehieiggeeeefififfghfeiegfeegehfgieghifefg
reefgieeieffifihffehfffeheiegihighgfeihieiefgfiegehfhffgiggfiggfffiffggfhigefgeeiefggeffgeifhhiiiegegfhgehghgiffeiegigeggfeeieihehfeifggiegfihgfhheiggfihiegifhigfihgieifhegheiheihggffeeheieefgfgeefhighggfgfgggefihggihiehihggfiiigfighffgghfiegfhfhiiieiehfifhhfgfeeifhfefgihfefhefgfhifheeeefhhghegfhefieggfeeighiifeegghihigffgfehiffehhiieifhhggfgihigigffeehhehihfifehhgeiehfifeigffffehfehggiffe
rhighgehfehiggffihieiieeffiiefggfheifehighiieegieggihigeeffeieheheefgeffegffiegegfihffefhhiihiehigefghigegeihhigiieggeighhghiighfifhgegghehhhheiifghhhfgheggiieeehegeifeiehieifigeieheifgghfhehiehfeeehieffeegfigeeghihehhigegfehighieifighiiffhgfeggeifehhefigfegfegehfeghfhiegggiiefgeiehgfehggfigigeifeeefggeeieggggfeefhhfeghffgfifgihihfihheeeghgeeehheefgeiigeheeihfgfehighifhighfeifgeeiiihgihgiihhgffgeehgeifighhhfeieieifgiefeff
rhiegigefggghifheihffefgfhiifieeiiefeiiiffhgefeeeifiiehgeififffeghgeghieiggfihgfgeehgfeeeiffggggefgiifiehgfgeeiihfiegfgeehfhgeeghghiehihgfhifgefeigeeiehehhgfegfiefiegggeehiiheeiggeigefghheeegihhheeehfhfgiggifehhfghgehgeheighggheehhhgegfiigiifggffggiieifeiegigghegggehgfghehhggifihhigifhfihihhifeihehfghfhffehiifiefegighgffegighgghhgigeeeehffgfhhhegeeghiihhgfffgfhfhhheeigffhefhgefegiigggifeghgffgfihgheefegghghiggffieeehfhhefiigigiiigfiihefhfefghee
rihhghiiihhfihffghggigihfehgegiehieggfffefhfifggfffeiehgeifgfeifeehihffhgfgiiffehigiifffegihihifeifieiiighhfeffeehiffghhiifeigggheheiiefeeggiegfehhgehgfiifehhgghggiiigigffhfhiififhihieiefefeiiehfiehhieighihggeegfffggfhgiefieggiggifgehhfhehhhgeihifgiffiiggfiheghffefiggggeeegfhhigggiigffehfhgiiheheieifgffgggehiefhiegggeheiegigeifghgiifhhhiggfehgegiiiiehfigeiifhgfgiifigghfhhfeehfeggggffefgieehhiiggiffi
rifhfhefigiiifeghhfghfhhhgeehfihfehiiheehffgefghghhggffghfiiehghiegeeiehfghfeefieigiehffifefiiieihefhheighgiehieeheefhhgieiffehgifigfihhigiieeiehfhighihfhigheeiffhgefgiefhfgihghhggihegfgffgffeiigihfehgeffggigghifhieifggeeeeegifgegeeiifffghegiiefifgfieifeiheeegihgiiieghfghgfhhhghfhheieieeggefegeihhfgffghggggieigeiiefihhfhiieeeieihfegfiihgiehhegghhhffgfhhhehieiihffiffeeeeeehghhhhifegiheiiefeiigfiei
rigffgfffiiieeheggfhigeeifgfihhhieieifgfgfgggeefhhfigfifeheifheefihegghghffghhfhfggefiifgigfigfgifefhhhifeheeihgghihghffihgfffheihhhiiiefggfgheffefeeihggheeihgeifheeggfggifeeghgeegihfhffiggfhhifhifgghigiiihifeihihegfhhieeghiehfhfehgggifghigehheehfefeffifhegiheiggiffgfggeggigighihfggefgghfheggihhfhfeeggihfhgfiggifeehgefeefgiihggfgihfehieefeeeifefeeffefiegihehiieehehgffehhfiihefhfeiiiffhihiehie
rfifegifeggifgihfgegfihhhifgifheigheegfgfeigihgehgiiiiighhfeiiefhefeiihefgiegihehiggiffiigifhigifeieiieghegfighigegfihehhefhfhgeegeihhhgeheieheifggehhefegihgghhffifihhifhehiehgeeiheifgheffifigieiehiiiefefihhfhgifhehggfhieihiiiehififeigiieeeiffghiighifhhggefieghihhfgiggfghghfgegihghfgeeghggheiheefiieegiiggfiieifhgiehhfgfigeiigehfhhhiihfeggeiiffeffhghfhgfhfheiehiegeeeehhhiiiefggfgghgeiehhfeeffefg
rffiffgeehghhfegihifieiihfiihgegeifheiehigfgihiehifhfggiiieifffhegfgffeheiefggfffgfgghhfiheeffehhffgiheeggfgiheggffifigfeghfeiefehhefegfghhifhfffheggheigifhhfieiiggiihhhfgfffiiiegheghghighghihghehhighgfifgiehfighiggghehehgeheefefehfieghfigiffgehiiffghefhhgefigghhhegffhheifgfihfgeeeegeeffheeeeeeeggfgehigeehfhhfihhhfeighfgfggfgfhfefiieggehehffiiieiegggfefeghfgffhhheeefegifieghefigehefieeihgfghfeefghhiefhehiffeefhfig
rhfhgfiifeffhhehgeifeieheeiiegeiegggeghfiigegieefehifeggghfgehfhehgegfhighfggfifhgeegiifegheefhfffhfigefehhiigeefggeiffihffhggffeggiiigfghgfeehiieihfhgiifeihfeheggfffgeigfeggffgegihfeegeieifhihgffiefhgiefffefigeihgihehhiiieifhgefefhgfgehgfiffhiihgihhehggihfifgiggfefgehhiighfhheifeffghfhfefefehhefgfeggffgifegegghhgifgehefeefegiieifhheeiffhiefghefgiieiggfeghififeiigiehgigiggeihghgiifgefihfhigehhgeegiigihiigiheigieifgfee
rffgheggggififeggfegigfgiffeeieeegghifefigihheefhgehefgigeihegegfefefhhgeggfihihgihgeefighigeeghghhhhhhfgeggehghgeeigieiigiigfiffiiiggeieifegehfefgighifehgiffegefhgffhfegfegghehhiefhfhheiifihfggehhhfegegegheefiggehgehfgfgeifiigiiheghiiegfghgigggfegggefiihfeeeeegiigefffighhfhhhhggghihiifefgefffgefigghfehgefeeihgiihhhihfhegefeeififieighffhgghffgifgiehigfifhgeifiegeigfeghgfeeefghgifgfifgiheegieffehgeeheheeifii
rfhghggffhgfiigfehfefigffhfhgihfehheeggghihiefegiiigefhfifihfifhheihihggihfififehgehhefeighgggeegfehiehhhiiihgfhihfeiiehgegiggfffheghhfhiggeefhiigihffhhigifeeehfgeighhffghfhgghfihgeihifghheehfgigigggeeffeefehefggeeihegieighfheghhfheggeihhgeiegfgfigeeiihggheifhfgeeiegihiiifhefeeeggegeiffihgiiiifeghigeeghfiihieeggiihfeeieieffhgeihiifhighfeifgfeghheehigefihihhhhgifhiefegeheieiihiii
reiifegeegfhfggihgeeeheggeffieghefihfhehefgfffhiheeehegefefggfgggfeffhifihigiigeeighfgiiggfeeeihhgfieggfhgighhihiigefheeghghfihifffhhhffggffegiffhgifigigiieegefhhfffhefghieehfiihheiefigeigiffgiifhihigfhgfheeiffeehhiefieeeheggheghffifegfehfffhiifhgigigegigfgieeeffhhhiihegihffgehhigefiieghihefifiheiihffegefigiifheeifefeeighiihifghieffgfghehhifeigfiihfhfeighehgeiggfgeeefiheghfegefeiihifeifhhghgffihfefeeheiighghhfgggeih
riefhheifgigifeiigefihhgiiihhggffggfgighffheiegigggfhehgfieifieiiiefegggfgiegffifhefhehfieghfiieeegfifeehifehgffhhghhgeiiigeigfiieghfgffgihgfihfggegiefeiieehfegfggighefghhfihghegefigffhhfhghehhgeehgfeffhgifffefigeeheefhggeheehghehehiifhggfgeefhgfeghfegfegfhifeigiefgehffghffhhgiegegihgfggghhheihhhhhfihieihehihffeeieihihgigieeehieihhffiffheiifgfgiefhfeehfehffigehghfgiggiifghieigfgh
rfihgefffhhhhggiihhhhiiegfgfhhfhfefigighggieififfeiiifgigiggeeefhfgeeiihfheffgigghihfhghiggiggheeeffggfegfhehgighhfiheeeggiggigggeeiihifghhggheehhgghgghfheheihgeehfiihfifhgieieefiiefigffghgeeihefgeieigehifhiffhggfhiiffhiiehgfifhehgehhifheeieifhegiffgegefffegfheehehighighfhffhfeegegiehghiiiifigfehehiihehefffhhehffhihheiiigihhfffieehgheeghieegffhhffhefegghgeghiiiiiifihfeifhgghehiiegfiffgfhghehiihhehifgffehigihhfhiff
rfehfghhfigfgeigfihgfhfhifgffhghighhfhfggfeefgiifgfggigggihihgiifigggigfgifhfggifefiffhhehieghehiiefeihgifgeiiegfhhiifhgiigfeifiiifihfigifeehghfgffihifieehegiefhhgiiffeehfheiieggiefggiggiifiggigfheiiehgeefgehiffhhegfgfgehgigiehfgiigfiggheghfefeeehgfgeffiieggiifhfiiefhgefffihfiffeefggehigghhehfihgeffggghfegghhifffhffifhhihhfgfeighgfhgihifiifeeieifigfihehfiihiigheeegeghihiffffeghieggegfeg
rifhfihhfeiefeigiehgggefheeegfgfhhifieefgffhhehggfgifggfiefghihfiehieeeihheffhfhfhhggghgggffffgehgfhifeggefhhgfigfgfigefihigeiehffiheiegiheighhieghiehgfggiihfgfghiiighheeghihifegeghiieheiffheeiighheiiffigfehgheifieheeihhihfhehghefifihhfifeihfghgeeiihheifiiihgifgheghhfgeeegieiiehefhfeigfeehghggeegihiifgfeggeehghheeegfeifigihhffiieheigfifhiieihhieegeehgggggehfefgeeihighegffgiegigifhhfgfhhiehggehhf
rieigiehhifgfeighgefeiigfiiefiegfgghgifgiiggeffhegffhgeififhffeghiggiegeeigeeehggehggehfeifhghgfhihgigiffhffhgihiiehefiggegeiifiefhfigheefiehehgfffhgggieiffegeefegggeiifefgeefihggggghgfeeggegeefgihgeggfieheffeeeggifiifhhheieihfgghigiegefehheighhhigfggfihhhgifiggfhheefeiihhffffeeigiehhegeiefhgehggieehihfgiieffieefhhfeegggegiiffhgfhfiifeefffhhffggeiggiiefhfggfihihehieegifegiiffihifgehhfigheghighihfiegehieghhffgihhhhfgeihi
riifhiifhghigifiiigegfegfhhfiifeheghihfhgfiifeeefghefhiiiiehhfhiggifhhfgieggggefghfehfigeegfhhgeghigfgehegegfgeegggfegegiehghgeghfefheihighgiheiggegigeegeegeeghhgffifgheegfegeheggfeggieiieffeihfeiiigfifhgieeihggegfigehifffgiiehfiggfieheheffihffggegfffiiefiefeeigheefehfffefgihifhghfggfhhgihiehggheihhgieiffighggfhiegiifeighgieefehigifhehhefggihhiegefieeiiigegiehheiggggghiiggiiihfghhggh
rhieehghgghfgehifgfegeffihiihfhfeefeeifihieefeggeehggiehiighhhfeheghfheigegfhfhhhhgehgiiihgghigfiigeegfiieeihigfgfggihiehfgggfehgiegfighigghhgihhhgihfiiehfgfhhihhhfggfggigghhehghhgfiffhifihiefgfiehfiggheefehhehfihiehihigggeehighghfiffiihehiefeeeehfieehgeeegghigifeggefgegehgeeiighfgiheihiihefhfieiihhfehigfigghghhffhffgeighifggeheeiffeegggieeghhehifefeeegfiihhfhiiieefiggiiiehiegghfehfgfehiefiefigfgfeegefieheieheehfifigeiiifgehhefeeigheg
rfegieifehffgehhfegheeheifgehhehfheeeiifieifgegieiiefehefgeiehggfiiffhiehfifffgfgfhefhhgfhifhhhihhhffifgegehhgfgeehihfhffihehhffhfiefeifhighhhheefiiieegieggifeggiihgeggifgiieeehffgfhefiieegfiegfeifihfefgefggeihigffeghfgeiigfehhfifiegggfiffeigegieegfiigegieeigfehfeeefgfiighieieghhhhfiegigfhhhggeiihffgfeheeggifhhifiihhhfihfheigegfheghhifgiehghghghhhhfigiighfifgghfhhfiegifiehiiiiiggeifiigheeghhihh
rgghihiehefefgihigegffifffifieigifheeieefhegeghiiehgfeigfhffeeeiieiigffhiihiffegfhfiheheeihegefffeeefheeghfhffgieihefieihefgfhhiheigiiifhfefgifieiegegffhihigghhgiefhihhgeegfffgghfefiffhigffgifffgfegeeiggfhehgiigghhhheeifgegefgfiififhhghhehgfeffffffffiehieehgfieeefhgihiihgeiehfgfiegehhghffififhefffegfhehigfeiigifihefhfeeiifhiefeehfeeifegiffffeefehfhefeieeeeffgfiiifefhiggeeigfffeifffhhfhhifghhfiigeifghihgffhifeheffhef
rifhfifhhggefehgifihghifeifhgfhiegigfeggiiggfgihhfhhigffigifheefgihefgighgeifiggggehghifeigefhfhifhhehehggehiigfgieigiegeiefihiigeigeihighihigiffigiiihiiefhigifihhfehgifggfffiifihghihiiieeiifeegggeihihggiehfhgiefeiggeggfifgiefhggfffeegeihifeiigegifiighgfiggiigehhehgfghgfhfeggggeihiieffgeehghhghiefheeiegegfifheiggiehhfhiefihgheegefheeeghgihgegfghigfefhhffefhhhhfiehieffifffhghhgfigihg
rgfhiehihihfghfefghghfeiegefffihihhhhhihghifhehigfgheigefifiehiifhifhiihifiiheehhifeheeiiiefieheeghhhgfiehhieigehefighefgfifhghhghhehgeheeigfhgghhfegfhfgeeegeeiifgghgeeiegfhihieffiggeggeiffgfeheifgifhfhfgiifigihgffiefegigefeeehigighiigieeehefehgfiefhgihhfhfegeffhfehghhiheeeiifegihfhhfgfggeghfhfihhifegigghieefieieheifeffifigeeehfiehhhghgihefeihhigiihgifhhfffgggghgggeigefheefeghfhheifheeffgiefigffgehighfiffffieiiihiihfgggie
rhffiegeffhgegeihifeeghegfhfegfeeigfefffigffffgihhihfieegehggieifihfgfifeeifigfgegehgfhifggfhggihegegihgigiefggiihghfhhiegeeiheieiighggeihehehgfhiefieeighehfgghffhghegieiigifhghehgefigifeghgefehheegeeiighhhhfehefiieheheeehghfghighifeiieigfifhgghhhefhfhhefgiefhegighfggeeghiifiiifeiiiefggfghiegfgfighfggehghihifieeeegggeggfigifhhehehfgheehhfiiffiihiheffgehfhhgifgiifgifgeifighffhe
reihhhehfhhhiigefhegfggeiihiefiefeefhefeeihgfhggfifhgfhhehigehihiiggihiieeffhfeiefiiiegihffeegiffhhghegheefehhifgieffhfifiehgfiefehieghgifghefiggiehihehhgfgefgffeehgheggiggghfeifeieggeiegiffeigfifffeheighgheggghgeegfgfffghgffgeeeeefehfghffehiieifgiieeghghgfhggfgehefgfiifghfeeigiigifghfiggffeffhfieghffgeggehfigheeheigghfhhgfheeeehgfhgeeihghfgehgggggehgegihifiighgeeggiffiiifghhgegieeegieigfhiififhgefefeiieheieghfgeehfifg
rhgifgeffhefighighfhhhgfhgghehfhfigihihfghigeghhgifhieiiehhegieeeighieifhfehehhhighfgiegeeeggeigefhffigfehefhhfegifeehieifihgieieheieieeggfhhihehigiiifheffieihgiehiefgihhghheihfhifgffhiegifhheeiggeigeifiiieeehihfggffiegehhgfgihiegigfefeefgihhegeffihefihhegeeheehgfhfffieeghggeehfhhggihihhegeeeehehfhgfhgggiiggfhgeefhgehggfiifgfieehfeeehieehhhfhfgihigghehgfgfgghhhhhffefihfiifeieeheigegfiiihfgfgfeeighheih
reeeifhihghhgegfffeiiieiifhgeifeihgefeiiehhgegefeggefifefeiffgfgfhggfhgfhgeefeiihffifiggfhhgffigfhfigeegiehhhggfeegfifhheheffgehehiiiegegghefgffifhighiigieefgeghehieeiiieeeihgiigeieihihfgghgffgigiggifgiifgfgieghgfhigiffehghfhfgehfigghegfhfhgfeiiihfeiffhiifgfiehhiefggieegghgheihffgggehfifehhhfheieeegggfffgfgegiefhgfefgeihegfghhghgegefiiifefggifiehhheghegfgeigfhihegiefheieihhheffeffhheihgeehhfi
rfhefihhefghfgehfffgieiiefiegehfffhggieggighfgfghefheeieihgfegifhgegfgihfhgegeihehhghgiigheheifhggghffieffeihfgiieheihiffeigfhgheeihhehghehfgeghgfhhieigeffhififhhifeeehehigeghihfgifghhhegiffeiffgffhiihefigfhghfhfegehgiiegffhghffhgegghfgefieghfgehgighfiigiiggehigeiehfgfegiefhgihhihiehhggfiiifhfeeffhghghieiheigighfeghiehefihgffegfgghhfigg
rffighihffighieiehffffhgfefiighhhiigiheggfeeeeeeehfggfihigiefghfhghiefgigiehfehhheeghgegffghegihihegfgfhhhfihggiiehgiigggfehigheghihghfefefggfhhhfeigifefgegfhghigffgiihieehfeffgieihgfifffggfefehgggfggihegeiighfgfheffgieieeegeiihfggggiighegfgfheffihgigegiggiiegfifeieigffihgiefeiigfighegeffhhigiffgefhiehhfeifefeheefgghiehiifieihgehhgfihfhfhfifhiifhhehfiiiefihhffifihffhefeihhhgifgififeefffefhhefhhifgigihggfggiihge
rigffhgheghgefheigiifhfhfhgheheeihhehfeeeiefghfieehfeifiefggiighghfhiheiieeihhheifffgeegfgigiiehghfhgiifigeeeeeffihiihhgheigffgeeihihigifeiieeeiiheeihgiehhffefhffgffgfigehigihhihheigfigifigigefggifhheegihhhfghgegffiiheeefigifihiiiiefiefihegeegigfhehegiiifhfigehggffgggfhihehigigiiihiieegffifgfihihhfihhehfihhiighhhghefiifgfihffgfihighefeeifihfgifgighheffgfhhhiggfgghhihieiiiihefeggeeeggfggeffiihfghhgihgiifgii
riifeifgfhiehgfiieehhhfeieiefheghiihhegfhhfhgggfieeeehefhigfiihghgghefieigigihefeefhhffhgeifihigghggefhieiheiihefieeefhigeehhifgeheegefgieihfgegheieieiheefefigfegfighfhehghgiefggffgfigfggggffgigfhgiiiifgggeeigfeiifhgfgghhhgieehefgifeiegfeihhfiheigffifighieeigfhhiegiiefhegefeeeihhiihhiihieeghiihheiighfiehfgheegfigeefhiffhfggfgeehieehehfghhggehiehgeiehefeiihi
rehhehhhhiggegieefgfhggifgghgghhiggfggihiieifffhihihggiefhfegiihhhefefifefefifeiffiieefiegihiehgehefgfiggefihheefifgfihfggffheeheffggfgghefhefhfgfeefhhefghfghfiiegihffhfiffggiiheffeifhfffeehefeieegfheeihgfghgifeefihieegeeiggegggfgghfgfeififhiffhfgfhifeeegeefifhhigegigfehiffgegifhfiefgeigfhegiffiiefegffhghegihgehgigghifhfhigfihfghhffhhfigfgihgigihghihfigiehghhhhifgihfgfehihgigfhhghigfeifhhfhhei
regghihiieggifeiighffiffgifiiifighheiifiihheghihggiihfgfghggghhigfgfghghiehfheihgighgiffghhfhhhggefihhhiiheihgghhffggihfgihggfeihffhifheiegeifhghffeeegiigfhefehifffgffhgehhghfeiggfifeehgiheihegeffhiieeefghgiefhfheghhfgifhgheiffhhheeefiheheifgghfgiiehgeefhgiieiieiigheihehgieegeifeiigggeifgihhfgheheehghegfhffihhigghihggehghfehgehihfifeeifhefhihfiiihiffffehgihghgegheeiieieiffeegfifigegghifiifhii
rhgigfihheifggihhgieigeehhigeggfgfefifigifffhgghifhfeeffieefiigfeigighifiehiggihhhifegifiighiffieefhiefegfgfhfiiffgiefeeeehffghigiihfefhgeigfefehhiiffiifigefeiffhigegeigfgfgehefifieehigfihheieefgeeeghfifefihihiihgggiehiihfihiffihhggihgeigeggiffhegifhhiigehefeiiihheeeiheggfeeeggihggegfeghhiigiggihgehhggfiifihggefiggfghifgfgehfehghhfgihfhgieffiffhghfifieiifgii
riiihhhfifheifhhgifgihffghghfiggfhfifeegheigfggfgiefihifffiefhggfifgfhfiheifgfgfeihfgggffhfghhfiighegfegfihfghgeggfggfhhifgefhffgefifhheiffgfeifheegfhehfihggihffggegeeghhfeeehhghgihiiihifghghgfgghgigfiehieheehgifgeggiheggefhheigffeegeeihgihfeihefhigeifeeeehfeiieehhgehiigegffiefigfehhgefehfehheffifehhgeeehieieiegefeggefheifggefigfgfiifgeiihefeegehihfieefhghihehgfgfifiheifiihfgffeigeieeihgghegfief
rgifehgiefeiihfifhefiigfighhiihefhffhigeehiiheefifeegihhfhfegeeeeggehifeigfeeghihhfggifiggifggfifeefefffegfefeiiegiefeiegefgiefeeffeiiieggehigeeiiehffeehighifeigigihhfgefheehegigeehggffefefggeffffigiifgifgfhfhehhhegfghiegffhgiefgighhifeegffgfighhifghfifieeighhhehfiifghihfgieehffgfefifhigegehheiiggfeffhhfiffgihiifhfeehegfigfeihheifgigeeefhiiifeiieighiegfiiegihhhehgghg
rhhfgggggfehfhghgigffghieffehhfehiheifefiefgeifgehefehhhffhigffehefghheiefgeehiefiiieggfeghgiihgffffiffighieheefiiefhihighfhifghghihieghehhhhfeegeffefgifegfiiifihehfihfhgeheehgggeieihgeghifigeiieeiigihigefhghghhiihfiffegeeegigghhfiheihfifgffeeehigieiihifeieiiifiihhhggfieiigfifhfihgigefheehfhgfggfifghhfiegeihfeheieeeihgiifhghehghggfehfehghggfghheeiehhiffiihihfggggefghegehhehig
rfhgiihgegffgfgfhghhhhhhefhffieeeegfighgefhiggggieeieeehfhigifiiffehiegffeghiieffgeghegiffieihgggggheifffhefgggegiieeffhggehhgfeghegefhfieghefhgfhihigfiehihfgehfeghfgiehghehhgfhhihegiefhegfegiefgfhffhefhfgggeegehifhgeffhfeigfhhgigegefhgeeehigffifhfggfigeffhfhieehfffeiiggeehhifigifhehhhihfiggefhhiegehffefifhhhifffefifiehhghfghhehheifefhffffehifeeghfiffifhfgfhefhihhgffhiieihffhegfehhig
rhgffhfgfgggeeeeeeffhihieeegeefieeefhhfgfefhffhhfifgiififhfifihfffegifigfeeihiigefiiggeighehgegffghheighfhhiigfiegfhffiieiiiffeeeeheigiggigfhehieigfghegggihhiefghhhhgfehhigegfehegghiggffgggheihhhffigfihhfeigeffgigfhfgfeeiefihfffeehfhfhehgeieifgfieeeegfeiffeighigfgfigihieeehehheieffihgeihiihehiiiffefghgifgefgigeghieeeeifhfeieieheggefffhfhggghgeiieiiffiifeigfgieiihghfffhhefegeiigegeffhgeeeigghfegifhgfgieif
rgfgihiieeiggegfgifeifggiihhihegfhegfiifghefeieihheiighihgiigigegieieigiihfeifieffifeegiifeffiihhfiigghfgfhfiehffhgghfhggeehefieghffgghfhfeehhfeheihfighieiffhgfhhghegiffifiegihiegefiefifihfffgghegfiegffhheefieefggiehgffihgfghhifighghheihgeiiihfheeefhffhghfgeggggigeefiiiehheefgghheegeiefggeiighgeeeiiffhifeghihhfhegihefefgghhfhhhiheehfheihiiiggfifigeghgfhgiifghfifffffgggf
rffeghhiehhhhifehehgfigighgegighefhhifgiggggfegfhhhfigeggigiigiihgiifhheegghgfigiehfgehgeghifhefgeehehefegieifiefefeefggffhgfiihfiifeiigiighgiehigefeeifhgiifhiiihfieegiffiheihfhihifgeiffehiiifeeeehgfffegffehefhigefhfhhfihheehfehehefhgeiieffheehiifggefghigheiiggfigefiifegihhigigffgifgheheeghihigeefifhighifehhhfhhggfhegeigiiffififieefhiifgiieighgfhiehfggehf
rgfghegehhfgihhhhhhhgiffififfefgigfggfigiefheihegfiigghffgigiefhgggfhfegffgfffihihegghhheeggeheefhfffgfheefffegfeghegheihhfifgfigghhfifgieehggfhfiehiehheiiiheheihihgggiigiggeghfggeighehiiiiiiiheigefhihghgiefeieffifhgfifgehfheehehhggheighgeigfehihfeiiheifeeihggiifgghfegfigigeighfghfigeiifegeifgfhgieifgheiifhgegeffehfiiffeeeihehihgeehhfgfiifigheihhehiihfiiffgfiihiifgfhihfhgiefeifheehifgghieieifeghfggfi
rehehieghhihfeghhgghfhigeghfiehhhhifhiefefffgegegfeffeefghefiegghhefggighffeheeffhghhgiefihgigfhehfhefghieigefegiggggfiehhigeegfeifegehfhiehffgeeieihiffiehgghegghgfehghgiiegffhhhifififhihfgeefeegeefigfhhhffhffhiefhfihfgehhgheifefegiegihehefhiiihghhffhifgefgffehefeheheeeihghggefehieeehefghggfiefiefehiiffgieieeeieefhegehfifefieieegifhgeggfigfeeffehehhfiigfhggfii
rgeiegighegehifiiegiehieggeffheefgiffeeefgeifhehegifheheiegeiigeigfeghgefiiieeiegfhefhhfigfhfihghfegighgggiiieigfeihhifgfggeheihhifeifihehgefhighegiehhhhfhhfhggieghfffhghhegiigegfggeegffhiiehhgeghiehhiihhhgeefigfieegfhhgegegiigeefhfehfehfffeegfgeeheiefhhegihhffhghghhggfhigfhihhehigiiegggeghhghffhihehgggeefhehfgfhfheeegiiegghhgighgfeifghfifgfighhihehhfeghhehhifeghehge
riffihhhhhehhhheieeihhgifegigghggeehehhhfhhgiggeiiiihgiiihffeihifegffhfgfefeiheheghhfiiegefggfghhfeiihihheeifhhfehifihfffiehgihehhegiiggihgefghfggifheiffifhiihgehfigihiigfeiehhggigiheehfhihfhhgiiieghieeffgfefhfiiefieeifhhiheegiffegfgfeiggehhfgeeggehhhfiffehhhieghghehfgeieihhigeiffgggeighggigeifeiffhfgfefifhfefggiegeigiiihfeffggeeeihhggihieihiheieghifigigheiggfhgefiigihiiiiiieefefggifiiihihfgefe
rghgffigeeggeghghhiifhfghefgifefeheieifgihifghihheiifggiihfefgfieihghigeefhifgifefffhegeeiefhieeheehggeieieghghhhfihfghhhfgheieeeehgifheehiheggefhiigihgeeggihgfeheeihgfififhhgfihffgifefhigfgiigiihhfigghhgigfhegfehggfffhieghgggegeffigfifieffgghgeehfgfeiffihhfefhheeifhhfigefeihfgfefiigeegegifegigfgegififiifheefgheiegiihfhfhegeieefffeghfefgfgfieeggefehgigifghfefghfgfegiieieeihiheeihgeegfe
rgegiiegfigfhffgihhggggeheghhffeffgehigihggiefhiiififhiffhiiggihihhggghhfhigigfehhiifhggihhffiiegiiefiehgighhhigfhheifihihiegeggifighieehgfhheeieiffeffifggegigfhfifgfhgfffiffeigggieifhfhhfihggiheigffhggifffgeeieehfegiihegghhhegehiehhfffghghggehhfgiggiiiiiggiieeiehefgeiihiheifffghhhiieiigehieeehgfeghfggihhgiiieieiheeiiehheehfighgeeiiiiggfhhfihggeeiiggheihf
rhefggfihhhegieegifeihghhighifhgfiiihghgefiihegeihghhihhiefhfehhfgiffghieehheeifefgifeggffgiheiiihefefeffhihfeififggigiehfifiighgiieeffhgghhehfifihefggfegiihfhgeiihheheegeegffegffeeeheiggghggfhfifigfifffheiiiegeeghggffffhegggfhhfggieehgfighhiegggfefegiefhihigfhfehfehifegfigihggfhgeihfhifigighegggefigfghhfigieehgehhehgiefheheghhfiegffgeeefggiighiiffhhefheihhgigghiegieg
regeffiihigfigfhfggigieehefiggigiiiegegeifgfieieiffgghiehefgihihgehifgggifeehighghgihfgfhhegfgghggeeeihfghfeehhghggfeiihiigffffiihffgigieeggeeihehfegefgfeehgfifeegigffifhffegfefgheiigeiiehffihihihieigeeehifeeehffgegieighfifgieefhiheffhegffeiifiieeiegghheehhgihfihieiieegeffhgfiggfggfeghhegihhiiifeefghhhigfghhgfeiihfghgihgiifeeheiehgiefggfgfieehhggffffhgegghehihffihefhheihe
refegigegehghgifeiehfhgfeeifeiihighhhghhhhefhiihffhifgeigeeifigghhegeegeeghhhihiehhieieifefgfeiihfhihefhieihiiighhheihgeheiieeeiffefhfihheheeggegegfefhhfgiggfheiefhhhhgefggefihhgfhegfiighiefiehhhfhfhhigffheffihieegffiigggggegefeheeiifehigiheieghfeeghgigiiiihfiefhiehgieggghefhfghfeeeiigheefieiifihieehheheffheeigegfeifgfgghifihfhfihffffieieeigghfiggghgfhfigffhggfhhef
rggfiigifeehiieiffgieihhgggffghgeeefiiegfgeegeiehfgfhefggihefhehheeigeghegigehiegffefhgiihfefffeifffhhihhegefgehhgeggghfgihififegghhhifhefhfhhfhgfefehihhhifiehiifgieeggfehfffeegegeffeifiehfeigffghhifggfhhheegfgigfihghegiefihiffhgieffeiffeeiieheifehhgihihfefihfiegefihgfhhehfhegheggiehehihggifhghffhegghigigiheieefehfegfigffeefhhghefffheiehfihfeeeheieifhgheffhhieigfigeig
rifegfgigiiiigghfgfigifgehhefffhggfifhihhhgigfihefeggfihiiegghhifiiiihgihfeeggfihffgggghhgffhiefeiefiihiehgiehheffheeehhefieggfgfffheiggiifeiigeeggeefeeieegihfeigeffehhiiefeghgefieiighfieegghhfhfehfheehhggfiighihihgfgiffhffeeggehegeeeigghgfhhehgiifegeiiffffhhfefighhfeghigifeheffefffgeihfihiifhfeihgfhfeigfgiiiegehighihgheiiegiigggfehehfeggfiefeifhifgiffhgieffifiiigieiiiehihhiihefffgiffefeigfeieghghgfhhfgfgfgigeegifhgehfiihhihihffee
rihghgeghhgeehhhehihehgheeghffehgeeeihggffghefhefgfffhgfeffhgggeiigiggfehfhhigfgigfgghhgfegiiffhhegggfhfihfhegegfhihfegeggifhgffgfieiihhgfhefeggihhghggeihheegfhhgeghhghfehgeggfeeifghhiggigiggigghegeeiehhggeiheefehifeheeigghfghiihieehfhgfieiihfghgehgehfghhfgihghhhhiffhehgfghhgeegiegeefefefiieeghfeffgehhihihhieighggfiehfggfggfeghgeegeffiiffifhiheeggeeihffeeigehigeehffgeghfeefgeeeffffiehiigfgghiihfe
rghhfiefgehgefefiehgfgehfihfhgihighghieeiiifgeigehfhgffiegeeiffehihfehffieiigfhgiifhhigefifgeghhhhffhigeggiihgiiheiffggehhgfggfgghhfgfffeefeieigghfeghehheiegegehhhhiiiifgfgggffeggeegeegiggigieegeihfeiifffhghegegiigeihgfhigeiigeghehghiihhiieffgefgiifgififgehhigegiffeigihiggfheeiigifeeggffgeeehiffegeffeiehieiefhiihegghegheihfeehggeegfgheiiehggggifigfhehgfeihhieefhfihfhgihiffhegiiihf
riegigeeffegfghieihfgiihgfhfegighgihigegheffieegfehhihiffgggfiiifeiggifggghfiheeeifiieeeieieihigffihegfgfiffefhggfgfhgiggegffiegeiggheeegfhiihfgehehfffegeihfieffiiieffgiifhhggefhhiiffhiefeghihheihffggghgggegeehiiiheehffggeeeggeehgggeieifgefeffgihgeihgheehighiegfgihiiigifgeifggighiiggigffhfheiheggfifgefgfgfhfhhheeefhfefgefihhfhfgihgehheihfegieifhghhegiifiihife
rfiehgehgfggehiiegihhieihghhgeiifhfihiheegieehfegeeeefieeehieiefeighhgeeiigeihghihfiieifgeggfiefhefhgfhigeihifihieiegeheegigggeeigifegeeefeieiiiihgihgifeeeggeifiheghgghiiifiegehiihieiifffeigihfigfhififgeeghgeigehggghhefghefffhiieefhgfhiieffifigeigiihfieigfefhgfieegefgeihghiihhhgeifffeiegehiiiifffeeiiefgegfegeeffghifhfhhfiggheihfeghfgehefeefiieihhiigggh
rfgfhhifhieifeiffffeeeefefeeeiihgfgfifgieiehgiiefhehhhgfighiggifffggeggghgfeiehgheeihgeighefgeghfgfhfefiigghieeeehffefgifheeheifggghihihghgheghheiihghiefeffeghifgieeheiiggigfgighiegieefhgfggghifefffeeegeghiifeehgieieffhheggihieeeeehhgghgffggffhggfhifhiigfggfiiiggiigihehgiiehhhfhigghhifhhegeifgeffifgiifiifiighhgeiefehgehgfifhgheieihheieeighgiehgfieefegheihgg
rhfihfghhghighfhheegfhggheghffhhffifefehiegffeiigghhehhhegifegfgeehefehghgeiheegiihigfgiehefgfhhffhiiiggfgffihihiigfggegeghehhhfehhfgehfifgfihiiiigfheieigehfhfhififfighegifgeggfghigigfggfeheegffeegeeigieffehegifihhgghfihfiggggiigihfefhifhihieieihgiiggehiehhiiffeihfigiefiiihiefiihhfhfgefegfhhfhfiiihiggffgefeighghifgiihfehfhhhghigihieghfhfgfigfeefeffh
rgiegeeehfggiihfifgeeegihgfiihghggeigefgfffggiifghieehieghggfighhgigifiegfgighgghhghfhfifhhiggiffiheeeeifieehgghffgigeehheeegihhhieeiefggfigfieieihgiihgfeeiihiegeghgiefeehfiiefhffhgighfgiefigefeieifgfhghifefghgeehgiiehfhiiegiieehifffffeiiggfihfhigeiehfiiheeeehigghhhhggegefehifgeegefgfgiigeiggfegfeghgiehfegigifegeihg
rhifhihgeegggigieeghegihheheegfgeeifiihegeiifhfhhehigggfeghefiehefiigefigefiiiiiiehgigeifheghgfhhgiegfgehefiigihgiggigheheehghhgegeehieiifhehihhihgeeegefghegfheieeiigeheihhehhifeiihiiifeffffhgfhieeiegeeefffegfghffegieigheefieefgigigighehhefgeheeeggiifgegheiihehighfeeifgfehifefhhhiigfheiiiiiehieefeigegehhfeefhhgieiighhfgehefhegfgefiefhhfefghhheihgghefefgf
riiiehfhhhihhhhighieeihihifeigihgegiieeieighigifeeigfgfehggeefhihehggefggegfgfeififhhgegegggeefhgfhfifhfgegihiiiheigeffgeefeeifigfefghgieefhigieifgigehheieehhffifgifehhgffhhghhhgghgfhggeifiegehfiffefhfigegghgegggeeghhffgihiiiihhiihgigghegeeghiiefihhegieghehheihhfgffgfeghggggeifeighegghigiffgegfhehifgihgfgggfihhghgfiihhefegfhefffgeehgieffffefehfggegggigee
rgefegffgihhfgehhgfhgggggeigfighfgfgfgefhhieeihehiififehhieieggggifhhffgffggggifhhiggffeefgfffehgfhfggehhggefghigiiieeehhifiefihieffgffgeiifhegeifegfgggfhfffffehgheeiiehhhhhfihiighhieiifgeiigiheffiefeighgeggihfifgigfhehifeifeggghfgihghegfigiifgeheeeiefffhghgfhhegfgfffihieiegfhhgiiigeegieeefheegehefiheeigifhihghififihhffiifgfhegeegggiefehfegfieeeifhegegegeiiifighhfeghhehgfihifiefgifi
rieieeiffhgefgiihiigeeeifgfiiehhghighhfehegiifeigfggfiiifeiehgheehifhghggghghifeeeiiehhhfiiihiffieghhgggigiifhiieehefhighehfiigiifiihhggehfihgeihhffhghfgfeigieffihfieiiegeigeheeffiifghiigfigighghgiiieiiffgfhggffhifgheiifiehghigiefiigggiheghhefgfheiefefgfheegiehfgfhigigfgeghheiefigggihefehgghhififihegeeieegifheeggiee
reeeghhhigighggeiegfgifeiheghiiefgefgeihghfegefhgeieigeehfgfgififhgehfhhfiehghhihgfgeiehgifihiefggfgeeeffffhiieeifgfeiigigigfffeiggfgeefhhiihiiihieehfegefgfghhhegeegefehgghifggeiifeihgeghhehfhfhehhhfiehgifghifheigefehgeeehehgeggheffefefhfgfiighefeeeeggihfhehefeggehihhehffgiegeeighgiieegeeghefegfehigfhihgfhihgfffgefhgieggfeeegehhiffheeieihggfiegghfhhehffhieeihifgefgffifef
rhfhgffeigfieigfiififgffefifefhhieghfehgifggefhifiiifggfefigihfheehhegegeiiffgeigfhefgifheiheghegieihhfhgeiehgigeiiffhegiigihggefgiieheehiehhggifigeggihhhefeihiheeihefhgfiehhfggiighhgghieehiigfghfgiifeegfieehiiehieggigghhigifeeeiggfgfihhigheihfieefihihifgghegigfefigehhifiefggfhhehiegeeieehiiefeihgiihgeihgffeighhigeifgigfhgifhehhiigihfhfgigfigfgi
reefggigfhhghieghghhegfhfhfgegiieggifffhigehfgeffifghggiehhghhhegeihfehegheegfhigihehgfheigeieghefgfieiffiihggifggheiifgfhigigffheeggifheeihghifhhigigfggfgheeeheehiffhffgiegfiefeegifefigeiigeigehefhfighiefeggegiiffheehgigiefiffgiifiggfehhgehieieeffhheegffhgiehhfghihhiifigeffefghfhifggifihhiigggfgegfhfhhhiffiihgefigfghffeghgiffgehefhffeihiefhfgieegfi
reffeefhfhhfefgfhgehhfffiheifigefhfheifgifeehghhfffiigghgeiefgehgifheegefigfigiehgggffgffifhhihehfeehgegiihhgeegiggfiiigeeghigiiifeifgfeiehhgegfhigiffffifeehfgggiieheegeeegfeifiheeghihifhhigghffiegfiiggiegeffehigfegffffgeheggiiffeeegfeifhhgfifgfieighfggffffggihiieffgiighehgiiheheeiigehehgiieiehgfgfgiggiiihgffifgefghfhffihgehihegfffeeeihief
reihfehfhhifghhghifiiieeihhffihheghfifihiiigiefgiihehffhiffgeigegfhhiefiifhehfigfhhiffiegggigegffeigefffifhgehffhfgiiifhfhhheefhgffeiihehiihigigffhegfiiiiigffeeifeehfgfefiiehhffhiiieeeiigggeghheeffgghefgffgieehffhfhighfghiefifegegeffiigfeghihfifiiigghgfefgffiiefgfefihfhfgiggeihfheffiggfhehieifggghefhgegfgeegffehgigfgg
rhgghghgfhgfffefhgfhihgehgiiiggfeiefhihigfhhihfggghifgffffhgeehffiggeghiehiigeiihieffgighgfeiffhgeggeefeigehhfiheeffgeegefgigfgehiihghiheffeggeggfefiehihhhgfhiigihfigiiegggegfifffghfffffegiggifegeiififehheiefehehfffhihgfefghfieghghggfgieieeieefhhfhghfgehfhgfhhefgehfiefgheihhhgihiefhgifehhehhgeegieigigghfhheghfiiifhfiifigfheggiigfhiehghgghehggefehefif
rieeiiiehffhfhghgihgfhfhhgffigeffhhgggghiefgieghigehfffifgheehfhhfhhigfehiiiehgffiiggfheeffggiheffhghfihfhiffhgigifgeegeheeeehhhihgiehehfiiihhigggiigighighfgfffeegghgeigffefggfiieihigihgheiihfgfeeeegihhfigfefehgeiffhiieefifhgheihgihgegifehhegeiigihhghihfigiefiiggghihffheffeheiihhffiiiifhfeiegfigghiihfgihgihgifegeeffhfgheehhiefiigeefiii
rfifegfeghhfieeigegfgeghifhggehffiihfhehhifgigihififhhghiegiegehfggggigghigihfhgigfhfhhgegfhiifeheieehihgfhegheiefihfgffigiefhgihffeiffigffgihhiigeeffigeegihfegigieeeiifhheffghegeheieeeifheggifiefifghffehiifgfhehhhfeigeefefgiheeehhffffgeifihgghgeefhghigeiheiigiifgegefifeieigieifefffiheiighfheifggfhhieggeifgeigffheifeehegfgfieegehghgfehgghgieeigieieeeiiighiefgee
rehfefegeghegiiieifgfefegggihieefhhffhefhehgihfiggihieeigghgfhggheeefefiggfgeehiigiieiegghgeiieggeiehfigegigghfiegeefeehegfihfighhghfhfffeeeehiheieifeigiehehgighigighhefehhigfiighgihifehfigghefegifgfigighifhehhgihgefgheffhiieheheggifehghhgfhegiihehheifeehghhfeehgieefheffhfiigiieiffhhgffgigeggiheffhfggfehfgggghiffgegegggiighggiegghfihigfhieghfhhffhfehgigfhighhehgfgfheegeghiehe
rhfhhffihiiifeefhgighggegeggieeihheiefhhehefeeehgihgiehhegeigefhhfgeggfigfeghghgifihfifighefhfihihiffegehhhfghhfiifgiifhggigeffeighggfhgfhhhfhggghihhhfegfhiifihhehgfhiihigfgihieiehifefiefhhgifgieegiighihgehiegiegeheghhegffeeeffigefhffegifiieefhhhehggghiehfhffegiheffggggfeighgfegegghhghgeehgighieiihhfiheihighhgheghieefeeiiegfeheeffeehfeihiggieigiiefg
regheiifgffeihggihhigfhhhgeiieehhgfhhhigfhhfheeehifggeeeghihegfhfeggehifhggghhihieffefheiieehieeigiifhgihehfegiihggefgggfhiggeifghgefieifhgfhigfhfhihfggififfhiihhififhfgeiefghehhigihfeeehfeigegifgeieieiihhieghefihgeeihgfhffgegififeffgiihehhgihghhhihgghhhfihgggiihefifgfeehfefehffihigfgheghgfggfiefeggeehgeiifeeehiiiiegfhieeffiigffggfefgfehhgehg
riihffiihiffhgegiiihefiiifighfegfgeihgifheefheiiieggiffhihfiihggeigfhhighiehgfgfiiehgiffgihfegfgfhegfeifffghhiggfggefegeeeiggeieeeghghfhehieehihefhifgihihehegieghefggfigeiieeghffgiehheihhigggihigehifffgeggheefgifggffheheigggfiieeghgfhihhihfheeeihgghgeeiiigefgfeehgfgefffhihefghegigiihhefhheiifififhgifgefggifgheggfeeffeegefefif
rhihghfeihgeifhieegfeiihffeihfhiiieigfiifhihfhighgefhiiihiefehhgiefghgfigeiehigihgefiiegeeeeeegieehhifehiiiiefhhfeieifiihighefegiefhghghgfgeihhghhgefffehheegegfhhfgheehhihegfgffgfhegehhehehfhffihggeeeiheifhehehhgeefeefehiefhefegfeihhegfeifggfiifgeiigiehfheieifehfeeegeihihgighhigiigeiehfiiegfehifhfhgfhghieigffggegfeggehiggehfffgifeghffeefihhfi
rgeifgfeifgiiheggfeiifegfeegfhiegifihhfgfhhehhigeefffieiffggfhgiifeiifigfgifhhheefffehhifefhefiigfhhggeeeifeifeeihhgfffhhihheiigeeegggiiheihhfhgihffggfegffieggegiigihhgeeehfegffiihhgeghfghffehgiefiffiffigihegiiehhegfiifeghhegfhhgigehfggghififiefghehgefefheifhhffhiighfgieieiifhgiiifggiegefehghhheffhhehggeffefeiehfihhfheiiiighiefeig
rehfegghhigehfehifhfgifgiffighhfiihffgiiggfgefgfeghggfifihghfheggeihghifgeeiigfigfhiiegehihfieffeefeeghehiiihgeeehffhhfheegigehhgiegghigiifhhhhffeggeiggffihfghhhehgigfehihggihfighfhgiiiheggefgffgghhgiefhgehefeeiihheihefghigigihhiegiheiehiheghiehefiggheieffiiifgheghfhhhfiefegeehfegigheigfefgieegefeffhefgehihheehigffhhhigehiggiiiee
rhgigeifeefehegigfegggigfgeghieeiiififgifefffigeggiffhhgeegeggfhhgeheiifehihggefiigfggeeegegfheefgehifefiiihhiihehfihfihfggiggfeghihefifghefiffiggeeegehighhffiheefefghhehffgggifhfgefgfheifgeggeeihhiihheggeihfgieigeegeghigehefihiigiieffehiheefegfgfhiihgghgeheiieeheifggegigeifhggghfgeeeieegfiggiihehegeiihfefeghhfgifeeiegegigheeihgffihieeegefefhfihg
rhfifefhhffigehhifgifgffhiiiefgifefgeghfefegfhefigghgffgehfgfiigfegggghihegfiigeggefeihggeiefhggeffghfgfgfhheghifigfhfhghegiefhfeeehhigeeghhiigheeiehegfefgeighiiihhhehigiihhffhhhhhhgfeehgihfiggieefffeeeheighighhgeiiehffhieefihigiegfhhfgeffiiffffehfhiihgffhiefehhfhfggheegigegheeifghiifggfeefhihhggefheeigfgehgfifieefheiheehfeffefiehiifghfhhhgiieeg
rhghhiihfffihihhgiehgegghgihhfehiifihggffeeiihegheegeiifheiggfehefehfiegegfiffffhihfeigifhfhihifiifghfieifegifhhghihihgefefghehifigfhfgiighiehiefehehgeighhehfifgfhgeghiifhfiifeiigghehehfeiigegeefegeehfeefghhfehihhiihffigheffghfehheifgghffihfefiggieiigifighgieeiffgeiefggihihifeehfifhggefifhfhfgeghhhgeeefhfeeghghigffgigfgeiieifhiffifhffghgifigfheigiihgiihifieeeheifhe
rhhgiihigfigifhihgihiegigigghhgfiehegiiigihfefheighhigifhffifeeehefeigighheefheegeefiieegfiififfiiffgheefefgiheffgeeieefhiefeghgffehiefgeggfegeffeiegfggfihhfhgeegefgfihhfifefgffhieefihghfihifehfgfhffhigiiiigggfhgigeggihheihhgefehgfgeehiihfiiffffieehhheiiefigieieifgeeghifieiefheihegefffehhieififhfhgigeiegihggghighfeifh
rigefegiehghhgegighggggeiiheieheigegggfgffgfeeeiihffhefgieifgifffhfehiifeigeigfegeggeeiggehiiihgiigghghfhehiieiiehfgihifhgfhhieheeghifighefheeggfhiefffgeigieiieiffhggghghhgfefgefiiiehigehgiihifiiefghfghhehegfhfggiefhggeffegifgghfgfhfiiffhgigfhfhgieffgigfihhhhieieffihgggiiiggifhegeigiehgffhgfggehhhhfeggfighfgheiiihf
rghiefggeigihggfifefegihgiffeeehhehhfegfffgfhfghgefeigefhfhhgefgeighfefhfiiggiegihgheighfehegfiihfgihhggiiiihffgiegfiifgfiieghieeheeiighhfifieeegefififhehhhfehhhhighfhfegeieggighhiegieeihhiggeghgefgifefhgheffeggeifhfefighhgfffhhiiffefeihfgfhihiefeghgiheffiheiiieeeiefghhhigghieffhhhgefhifehegfggegeghhhggggfgeihhggiige
rehiheeeieeiihiigfffgfgfigfhheeighheeehfehgfhffggihfgghheifhfgieggfegfhiifhigffggiheifhiggiefifhhiehgiifeggihhffiehhhhihefefghgeggefhggeiieeifhihfigiiggeghgfeieeeghgfihhfegghhhfhghiieihefffgghifhhiigiegiehghfgeifffeighfehehghhfihhihghhgehieeeffgifiiifgffefifegfihegfheggegihifgggghhfiifeiighegfhfeffgefiieehigeh
rgiefefhfffeheffffihhifefheiehiheehiheiihgihgfgfihfhhihfhhehhfffigggifhifhgefffeeiheihhiihgifegggifhhegfegffhefeigghgeghefhgiefhgeggeihgfihgiigfheffgfihiighghiihffegigieghggghgifhgieeiigifehgfihhgihheefgihggheggeggiiihgfieihhhgehggehieihiihhfehhiiiefeifeigeigefiegeghehieggfgggffgghhihefefhegiff
rfeffieffiihfgigfffggfghiehfgiifeeifigeefiehhfgeieigghghhhiggihhiefeghghhghhefeifiheghhefeheiheeegggeihehffhgfiifhiehehiehffhghiieffiiigheeehfifffgifeefhgifiggegihhegeeigfhhgieehffegieihihgfeighgefiegffggfiifgeehgihfegfifffheehheiehgeehiigfegfghgfefiegffhhffhhgeggeigiiihfhfegehgghiffeifihiggfiigiihehhhiehfggeigghhgii
rhiehgfghehgiehghiiiegfgheihhihiiifgfggghefihfhheegggeggefhegfigeeiiefheifighggegeefggfheihhgegiefegehgiefhefegegggeiehgihehhggfehhehffeiieegefigeiigiffehfhghfgheeghfigfeehghiiefhgefeeiffhfgfeihigihggeiggggiihifeffhgiffehigegfihgffigegighhggfehgehfffgfeffiefggiefgfehehiefegfhgffegefggehghhfghiffeeieffhfhgfghhgfeeeieifegiegifffhefiheffgihgighegiie
reheggeffggggifggheegieifghfeiggieghehfhgihfhihhgehigfhhhhfeghghiehfeeiifgefffieheiefeefhfghefhfhigefhigfghieeehgffefffghegeiehgigeeeiihhehhgeiifefefigfeihfffhhhhhfeeieeiigihhfeihfheeefhfgeegeehfghhhhgiggieefihggeghhhighfeeihihfghfiihhehefgeifehfhhfhhihihfhiiegefghggfgiehefeehfifigggfhhfgifiiefggieieeieheehhfigigigeiighghigefifffhhghhieggghifeehgfif
rigghigffeiihifhhfhehghehfeiegeghgiigheeegiefehihhigfhgffigffheeefiiffifhefghfffefeffiigigegefggghgighggiiiggfegifegeeffgfiighfgghffihheihigfifegggeihffieeiihfhiifhiihiighehfefhgfigggieghfhifgegeihehhghhgefheeiehiggigggehhiheigeffhhfiefefieeiefhiegfggigfgigeehhhhfgfhigieihgfhghfhheheigehieggegiheigghiihgghigiiee
rihfghifehfefgefheffigfhiiiffiihhgiggefgiigefhhihigifeegfifgegefifefgfefeihhgfighhiihiieeeihigiheifghheeghigghfeiefgfeiigfgfhhfhgihgghheigifgefhfifieghihghheigefegheeeiiigigegeeeighefhgfgehfeihgihegefhgeeheeeeegegefigefeffiifeifgigfiefigiigihehehighfifgeghfffehffgfehhiigegihiiggghhhhigfgieggfffiffigefgihehgigghfgfgeiiiihhgiffggefiihhieffgfheghhfh
riegieghgeefgghhfhfefiiheihigheeggihhfggfgheihhhgfhhfifhifhffeghhfihefeheeffifihhehfiffhifeegieggiegeghgiiieehhhhhfeihheieghfheigeheifgiefihgehghegeeheieehghhhgffgehgieefhgfggiiffiiiegihfgiifggfiehfhegfehegiihhhegigfieeeihifiiiiegegeegfifegifghgffffhigghffgefgihfihhegehffifefghifghhigigffhfehgeffgeheiffehiigieiifhhggeiff
rfiehhfhefhihgfhffeghigfieiggeeehffgfieifeefigiheeeefighghgfeighgegiiihgghhfgeiggghehgeeeigghfghfeggfgehgeggehfieiefhefeeegehehiggihfiifffhiiihgfehfhfgeiiggffihehgiifegiefhfgeggeigghgfggeihiieihiefihefiihhfghihehfeffgfgghfigeiefehigieehhgfgfheihhegegieiiifeiieghighfegfffgfgfeeiigfiggeghgfeiieihighhhfieghiifeihfehfggfihfhigiihggfeegh
rhfiigihgghgheiefehgfeffhehfffiffggeffiheihiggfhiiefeigeiggghheieggfefffeiggihhhihifihgihfhfiihifegghhhehgeiehgihihhgeiefgigfihhfegihgihifgfigghfehhegfhiegffefggehhgihhffieefefghfiegegigeeefighggeifhegiggeeeihfffffheehhgfieiigfhefegegfgihiheeffhiheghheheigiggehgiefhgffffhhgffhegeheghghgfeffehfegfieghfffegehiieefghhehigihgefg
rggfiiigghgghgfggfefghfeiefggfhieggiiiffgehgggffefggieihefhgihhefffeeefiegfeiifieiiiieighgihfheifhihhggffefeiggihheehiggifggfghgegeffighihehgiihgihffeeghgfgfiffhggihfghiehiieggigegiefiggfhhhffgffegeeieieeigiefieeffieffeiihfhiihiiiegeeifihheiheggighggiheefgfgffhhehhifgiigeeggihfifhhiefhggeeehheh
rhffeeggggfihgeghehifiiehihiihfgghhgefgheeiigghggfieehffhfeiihgffgiiehgfhhgheeehgfhiefeeggigfheiffhfigihffhfihfhgeggheihghgeigegihhhhehihfegggeiiehieggigiefgehheihhfggieeiiifeefeihgghghhegefeeeiihhhieehgiegihhfgghgfhggfghhieiehgiiefhgfefghfhgfhfgghiegihgfhgfghfgeifhfhefifiefghhfiehfiegieifhefhfghgeihggighggieiiheefiifhhfefghheefffhhggiighifiehefgfihfeh
rigghhifigfeehiieifhhffeiiihighggffgfhhgeiggihiegeehhgeihfggfgfheeefeeigfheeifghhhffgieggiihfgfgiheiefifefgigiieifffghhiiiheifihggeghfiegffigfigigehgfgfeghifhehggeehfhegiigghffghiiiieehhfihhieeghhhfeheigeihfffhehiehgffiieegggehhfhfhhhhihghighiffgeiffhhggefghiegefgefhhefeggiehifgegghfeehiiigfghegihheehigieghffeeeeigf
rigehiheieeheheeheiiehehfgeghiffhhfiiffehffhffffhgfehheiefhhgeifhggeeheegfieeegeiefgehgeiefgegefeihggehfgigiifihhghhfehgeffhififgiheihfhgeghfiiihgiigeiifeieieffighieggegghffgeffghhggehgiihggefihegeegeggfeghhhefighifheghiihfiihffehhggiiihhhhfghehieefhegiffefifgiefgfhfifiegfeififggegifehffgiegfgiheeihgfgefgggeifehhfefifeiigefheffefhhhheggihhfe
rfighgfgggfghgeeehefffigfifggehghifgfeiigefgihhigegefhiigfgihgifgeehgiiefgigfiheeeghiihfegheiifffigihhfgfefieefgeheiiehighfighghgfigeefhhhghhegeeigeeefieheihhggiiffihighhgheihffefhgiiggehgehifgfhffiifehieegffeifgfegegehghiigeiiheeiehhhehihhfigiefigiggighgiifhihgghheiffgfiihhfghefggefgghfefhheeieghfhgiehhhighehhgeiehgheeffhh
reheegfiffhffghegfeggiigiggffefieeegghghiggeiegiigffigeeiifgehggeieigiihffeeghffgiihfihhegeeggegfghefghgiiihiffheegifegfggifefhhhhfifihgegefehghhigffiifhegefhiffeegfefihhgefiefegighihifeiehefegiiiiheifiehiefieffeefihgihgieigifhhihhegeehggeghfheeihghifeifgeggefgehfeiehhegfhgheghgggighgfhfhfgefggifiiiffg
rffgghffehgeiifieeeigigiheeggfefhfiefehiefiieefhgfgeeffeiggheeihheeggifeeefgggegieifheggiieefgegihigiegfghhfffhgfghieeiigfieeggeefgiffgefggiheffegheggifhfgihffhhhiffhggeigifhefgefeghhhigiiieigeeefhghhfegefefheeeeefefhieififfiiigfggeeeehghfieiigeihheeefihieghiifgihiffffgeihgfhfeigeieggeiehiffhgighehfeeehggifihhiihhhhheiifegheihgiggighiigeege
reheeffhgegheiigeieififiieehgfggheghghifefffhgehgeehghifhgggeiihehhiiggifheffhfehfegiefiihfiggggfeheeefffiiggeiegiehifehifgffffiiffigggeffihhhfggffigfihiifgegfffggegiehgiifiehfhfggigefffhhfeegiggfiighhffgfgeihhfhghiefihgieffeegfiiiiehhhefihighheihiiffeieffgfgiehhhfihfehgfegihiggheeeieigeeiiehiefhihhggfi
rieghgfhegifihiiehhehhhghgeifieghheigfggehiehhfhhgfggiiehfiiegfeehigggeggfififigeefgiggieihgfghhgiefhgffhegihfihieeeeeeeiehggheggghfgigggfgeiffhhhihhifiiffiihffffiefhghifeigfghghhgiigieheiihheiigehiegffheihhfhgihhhiihiegghifefihfiggehigfheigfieihihggeigehgfgeghefihfhffhghegefegieieffgiihhfhgffhfgfiefgehffehhfhgfghhfiig
rfgighgfheehhiigggifeefiihiigihiegeifiefihiigeheighfeieieehgighfihegghhhfegegfggeehegfighhfggiehgefihfiihfgfiieeeeeifeffegeifegefefigefehehhihhffeeiehfgeffhgfehffiehghggfgigeeeghiefgggifghgehefghggfffihehehhgfegggefhhffgfiiiigffegiegeegefehfieefiiigefeehiiehgfgfhehhghiifeiiheeggggeg
rihhhihegfiehghgfeggghheehggggeffheeihgfffhiigggififiegfhiffhfgefigfefifhhhigefffgiggfhhhiifghhieegegfhgffhefihihhhhiihieifhgfgggiifghhiiffhgeighhgggeigigeihiheehfehfigieghggfeeeegfifgfihihggfgefeggihigggfegfegehffhiefifehggheiggiffhehiefggeifggfhhggfhgegfeghghfehfiifghfggifieeigiegggehgihfieigfhhegffihghgghgfiiihgfhfggefiiegihgfiegigeh
rfeghegghfegigffeeeegieggfgeggeehhhfhgeheggffhhfhhhheheifiihhgigeieehhhhgfiiigeehfhefeihifhhhighhihfihfgfhffehheihehhghghfgfffffffegffihieigfiigggeeihiieighehihfifghgeihfhfehhigiihgfgieigeiifeeiihfeeihhgihfhegeeffgfffehgffggegggighghfhfiiifiiggihegfheggiigfifgfeefhheggihhegefheiifihhhhggiiie
rfiiieifghfhehhghffgggfggfiiehigfefeeeheefhhghgeiehhgfeiiefieghgggieghgeighhegiggieiefeihfehheghgghggeghgggiihffgggihieffeffgfieeiiiffgeefgfihifgfggegehggggehiehhiffhgfeigfifegigifeeeiigfieefehegiefgegfihgiehhgehigehffifieiighfgiheheifieiehfeiegiehgifffgfheigfgiiiehieiffefegefiehhheffhfhghefeffefghehigffihihhghhiifgeeffghfef
rfghfihggiehgiigggefiiffiggfgehhiefeeihgeeggeffgiieehffgffehfhiefghhifgifiihfeegihiifehghhheigggieehhgeghieffhhhfiggefghfeegghihhfigeiiihfeiifigegeghghfihihhefggefgiehihffhieefggigfiieiehhegeiihgfegehhffgggifieffighhgififhigfhhhefgiihhhgieiihgeeeigighghggfeeefhgghgefgehfffeghehegei
rfehhgifigihiigffihfgeegihegfiigeeefiigehhhgheffgigiiighhigihgheihfeeeehihhgeihghgiegheggehggfghifhffheghefhifhiiifhgiefiehhfgfghiiggffehhegieheighffeigegeheffeggiihfffiheeiefeifgegfiifihhgfhfhheffhigifghhhhhgghffeeifhgifgeighghhfegieghehfggfhefiihififffehfhieffiffgigegiihheeiieehifieiigihi
rgehefefhghegghgiihiifhhgeiighgfgighhgihgehfghehgegigegfgfeefehhfehieeeiehgiiggfgieffiehggehgfiffiehiggihieghgehfhfigfheieehfiieigheihggigfeeghhefhihhiiheggfigghghigegigeiggifgefgeihiieifgeefheiggiffigghihiifghfffhhgiffiggggiifefeieihihiefghgeeghifggeifiheiffgfegfehfeigiiffiieegiihhfghhhifghi
rffiggfhfegggihiffhffhiehififegegeiiifiehfegehfgffhifieihhiihhfgifhhigfiifgifeheghihgfehifieifgeiffhhgigefifighffhfefhhhihhfiehehieghifhhggggeeeeheigfgffgigihghigghfeffhehefhehiggfefifhiheighhigfhgeieeegheiiiiheieghehhegfegegieefegheggehhggfgiffgiieiffeiiieifhfffhhefhhhfegghifghfigefhfeegghihfghgefehiehhfgihghgfhhifffhhf
rihhiheifgehehffefiififiggghieheehhiheeeheehhffeieeeihfieeiifeghegiihifhehhhiiifffhhigiighfhehhfeggegeeghhgiihgfiffhheegefhfffihihihefehegiffgggeeheehgffeiiihghfhhhehhggghefhefhhhihfgihfeiigighgeheheeghgihgggeffhihiifiieihighfghfgehghifegeheffffhggihihieggfigghhehhgfhffffieiehhiggehfeeehggeeggheiiiegghfgihghiggieefgei
rigfgeiggeifffffheffhifgfggfiihefgghiheghieiffhfgiggehihhhfgiiieffefifheghfegiffhfhhfifiighhhhfeffhfifhgfiieihfgffhggfifigeiefigigeiehhiggfhghfhffhiggehighgegfegfiifgeefgiiggihhggeieffgieehfeggfgeeieffigehgifififheihiihgeegihiihefiihgiffheggiheiihehhieefihgefhifggefhfghhiiifhhgeieeiffffif
rhgeffifgeifeigehieiffehfifgehfihefiffefhfiheghffigiegihhfeffieifhhefehihghhihfggefigfifigggfifigfiffgefghffihifhghhhgiiihfggiifehghheieefhifghfgfieeegghhigehfeieiieeffhigiieffhehifgffhgfhhihiiieggfeeggeheffhhgifigegehgegffhgfeiggefeggehhehgeegggfieiiggeeffhfeehigefiefeeigeh
rigiigehfgfiiiggeigfgighiheiiggggfgffifggifhiegfeigihfiifeefgihffggigfhfeefighgiiihiehhgeehgehfhheggfehigfeefhiggefeefgefgifgeiefhgiighfefffihehhfhhgghffigieifhgfghehefihiehehfhiffhfiefffhggfgheefhgiihhffegeifhgieffhigfigiheihhehgifhfihhfifehgeiihfhfgeeehieffhfffiifgigggigiiieiefeifgifgieehfffegighifehighh
riieeeiigeefiegifeffeefhiifhehheggeeifigffehiggeeeiehgegffggigiiegfihghghigghiehgfeehfifggeiiehfgffghfifehffhfiggeggffheefigfieeehgheiggghhgfeieehghgghihehfiifegieieigggegeeheggggigheehiggheieigeffiffihfgfifhhiiegeheieiigifghfeigfgiiffheghhfefegieffeghfhgigheiihhfiiffiiigfghhfhfgehffghgihhhehgfihieiefggieeeeghfefigfgheggeef
rhifgffgghfhegiefihhgehhifhfehhffieeefegifffegffhggegehfhgiigggffgffhfeihheegigefieefffieghgihegegefegeefhfeiefgfhggfehfiifhgfeiegefihhgffhgffiifhhhegiifeiegiigheeghiefeeeifihgiggifgeiiiifhefhgheeggheghihiihhfeiigihihgehhhfegghfihfiiggeigigheggeefeeiihggefiehfffgefieegfgggiiiehiggeefhghie
rhgfiiheieehieghihgffhheieggegfgefhfehgfeifiihifghiegefheeggieiifiggifhefefgefegfeeeefhgheegfffifefegggeiigighieeifegiiegfgeheifehfigfifgggfghfgigifihhfegheiifggifiefggeeeihgfeigfeeghgifiifefegigggiggfgfgfigffhhigghihhhfefgggfeeeigghffeghhfhfefheeieeefhiheeeehiegehheefhfiihgefiffifgihhgehiheigeieegheehfi
rghggihfhhhffehfiifffhegegeeheiihgfggfeefhhghffhegiihffhihfifehfifhhghefghhggieiifhgefgighhhehieighhgfiifeghfieeheihigifgifhggeffefhffehfihieeeehfhgeiehhhhgeeehegfiehghgggeeiehfigfeiffgfhifigghehhigfhiehieiifefigehhgighfheehhhhiefiffhhfigifiihiggihfgffeffefiiheegheeeiiighefeiefehhfieheefffefggfg
rifihhfieiieieegefhffehhfgeififehgihghghgfeghgfieegiegigiihghihhigffgffeihiheeihefghhfgeeegeeeefehiiifiiieggfhehigfihhfeffgfhgghefegiiffeehhhefigeegegifhfifhhgegggfheieegheigifgeeiiifgggeefihhfgfghfgeeffehghgiffheigeghehgeffhihheehhffhfihhhigigffgeiihiefeefhhheffihfeiefifhhhfeggfggeifg
rfigighgfgggghiehfeffihihefegghehggieghhiheifgiihghiffeifhfieefegefihegihehfgefegffegifiggehgheghgffiffiffehfheeihggghhefeeehegfifehgfihiehfhhheffgifgfggfeehihhehhiihiieggheghiegegifffgfhehgeeefegiihiigiffeegggfihgggffeieeigffighihghhhehfgghefiiiheghfgfhigifgigeffegfeeeeeeffigegfhheiheiehfiehhffgifgififefhifehiehif
reefhhgffeiggiffeifgfggfhgfiiieeeehehfhghhfhiiiiigheiehiiiiffifhggheeiihgfffghefefigfiffiggeiehfihhighhfffghiegeffiieeefeihighefghffhfhiggegigighhgeeigeieihfffeggfeefghfggeifhifeiffhiefeegiggffefgihgegigfgeghgifiggfhhiggffhggfffghfigehifgiefffiheihiiegeefgghefhhefiegghggfefehhgiihihhgihfihghgiffgehggghie
rfeehiiheghgifehgghfiiifgihfhffigfiggfggefgiigefghghhfigeihigieggffiiiiegfffefhgegeeffghgeigeiighgighhieifgfggfgihgegffigefgggfeeeieefffghhigiifihifeehggffiiiffgffggiffiigfeheigfhiffhegfeheffiieihiefifighggifhgefhhghiihgeefgeggfgigehehgihieeihfhefififgieffghegigggihgifffhgifgeggfieehehgeigihfhhffe
reihfhegiegigfhihhgieghiffffighfigigggiigihfghegfgfiiieghhiggiifheehgggihgeggfihehigigigeeghfhfehiehfggffehhhihhieeiggfiieghhfeieeghgfiehihfefgefiiehgeehghhehgehfhghigfeeefhifehggifgifggegeieefhgfeigeiifghiiihgeefihhhehhehhhhgihfhighgfhifigeiihhhgfhgfeefhhegifhhhhgeffhffegghfegifihfifgegfieiiighffgighffg
riihgiffighgfefhfggehghiheegefhhghhiiihehhgeeihfhgffifegigffeefgeiiieiiiihfiifeghhheieieifgihhihehgeihfhfgihhieigfihhhfhfhiihhihhhigfegeefhegeiffeeeffegfiiihhhfgifeihgfgggihhffihhgfhfghehffhiegeggfeeeggigfgigegihheefhfgfihfgfefiefieihigheiheegheiieehfgfiigegfghegifihiiiiiihggefgg
rifiheeeegihhfgiifhefiggieehgfeehfffighifiiffgfeefhheeffefihigeiefeihffggehhiffegieeifffiffihfhhefheiigffhgfiehgieiegehhfggfeheefefgfhhihgghgegfffhefihefhffhhgieefhefhiiegfhiefgehhihhefgiighehhhfhefgfifiiefeigehfhhieeefhhihfgfiihgeieghfheeeeeiefhgfeifhhfighhghgighfgfegheiffigigefhgihehehgi
rhfigfgigghhegififhffifeiffgfffhghiiifiiiggigfgfieieegfihihieeigehgfehefgigfgiifehggeehhifeiffifehegheeegiiihhhegeiiegefieeeffihiiegfgehfiegghgfegfgffhehhhiggefhgfiefefgghfehhggfihigiggihifhhfffghigffiggfeghihiigfeffieeeeehhfffehehegfhieieihiheeehighggfehgffegfhiefgi
rghfhgffifhgeegiehehhhfeghhheefgifhghieigifhfiihifhigeiiehheefgfgfhhghgeiiefeiifhhfeegfegigggeeghhegiigehifefhiihgihieegggfiigfighgfhfghfefgeefhgghhgheihgfgfighefehgihefiggfegegfigfihfhiiifhhffefefifgfeigfgeeeighefefgfeefefgggghiefefeiiiiifegefegiihfefgfeifieeefefhiehffifei
riehhgfegiieiefiehihhggeiefeiiffihfiehfgggeghhheggigifgeheeigfgfgigggfgfhgehehiigeghfihigihigfgieigiefgfehiehhgfeiffheggfhfhfheheiggefhefegehihihfgifgfgeehfehfgghegfeihefefheghffghhfgehehheihgieffegihfififegghggieeihghhhihgihfefhfiiggehieggiefigfiifiighiffghieihghgi
rfffffefgfhegihiffggieihefieehegfhhgiieigefeegiheheiefgegihhihgghegefgiihgieiehiehfefefhifhhfehifefigeheeigfiehieigfieeffefihihiiehigiiihgfeiffeghhhheifffeigfeghefgiggefeehfhheifhgghfeffihgfgefehfhghfghiehieghhgghhgiiheiigfgeiehhhfehhgggiiehfghffefiegeihhiehihgfiefhihhifhgeffghghhfi
reigiiefhiiigegfhgefgegffiieghffegeighgggffifefgehhgeehhfheihfghfhihfgeehhgghefhhiffgfihieighggiggieffefighegfehfhieeeeigeifghgfeifhefegfegegghefieheegighefgegifhhfgeeheihigiieefeeiigfhghgighghhiehfeffeeeiggehggififfifheeghhgihfeeihffhgheiigihihfeiifgeegegffhhfiggf
rggfhfegefhfifgigifgfhfiighhfgegfiiiffifgggihehgfffhihifeiihhfhefgfgeeeeeeiegihhgfhfieifiheheehhifgiggiiieifiigffgeggiiiefggfgeeeififhhhheieihfehheghffegegeiigeheffheigefgifegiiggiheighhigihiihfeghefhhhiiehiighegeffhiefeegiieehhgifgihfihgffefehhgfiiieegfigfgfehiggiifhhiifffifhegheieifffgeiehfgee
rhhhgeiehfiifihffhfeigihgehefhgihfighfgfifeehegihhgghhheehhifehghiifeggihigheiehighggfegfhfhhfegfiehhhhigggghghiffgeiihegfeehgifieigeihiffiiegfieeifiihfhfhfhegighighgfihgffiggfghifehihiifiieifhhefeihffiihhfiefihfiiihheihehifhggffeggfheifgfghiigheggffghghieeifhfefhehgfgii
reeeifefehegggghihihffeiffehgiiheeefhfhhihehggifgeiffegghihgigffihggigefggiigehffiiifgiifiggfehhhfgehhffgggfeehfeighfhhegggfgfigifgifegfeeiegihiieheihgheeiihehiiheghheheehiifihiifeghhieeheefiffgiegiegffhfgifhhgeghfhefhfhggehifhfgieiefgiehefheehhihigfei
rfghehhiggffigefeihfiehiigghefefggiigheegghiffgheeffeeeigieieehgeggggiighefgfeehegieifghegehiheieigeihgiheffegigfegehfhihhihhfgifffggefggeiigefefeeigeeefieifheifhhhhffefgieggehheeehggiiheehhfffieeghgieiigfehigefggffffihigfehggeeehfgggeeieggehiifhhgihhfeffghgifgehiheigeffgghih
rhghgefeeifeheifggifgghigfhghffiihiheghfgiheegfgigffifhighfhiiieihhigfgigefghigigehhfhghfehgigghggeeegiihhghgfgffgegeigfehhfeggefgefiffifegihggfigeeggfiegghiihfheiehgieigfiihehheeghgfeiheeeehheehfgehigfhhiihififfhigieiieeheehfhgfhheiihfhfefgghefeihiihiifg
riggfhfghefhhffigiheffgfeigeehfighgeheghghffieeiieiefghhfeihhehgfehfeggifheghgfighefgeiefhhfffiihieefgeiheghhehehefgehghffggghffgifhffefigegieieghgifehifggeeefgfegefgfgffihhfheigeggefegefifihiieihefehighhhfeifgfhggffhggfheehhgfhhfhgegghehgfeegeehhegffefheiefieeeheggfigehhfeefehfi
rfifhigigefggfgeeefigfigifiefefgfgifghfieghhefhehifeghegiigfifehefigighefgefhhhhigefeeeigeghhhfhifhfhffeehhefghgiihfffehfhgifhigfghgffgfigieiggehhfefgeggiheeggfgfhhggfiegffefiefeegihifgifghfiegiefiigifighefififehifgieefhfgfhifghgiiihfgeefhiehiiifhfggehihihiffigghf
riehfigeigieghfheheeihihegfieiihefffeehfhgigeeegehhifgihehiggheiehggiefiiefeghigfgheghhifhfehhiefhhghffghiiehiiihgiegeieegeheffgiifigegeihgggfiheeheeeegghhhiigfeeegeiighfigieeffffffiiegiehhifheigghfihgfhffhigfffiegeifggigfiiefhhghiffgigghgiihhfgeghegighehhfffefgfgieeghgh
reghhiffifhehfehihighfgfhffeefihhfiigeeffehfhhfifehfhegigeiiifeggifgfheghiehgfgfhfgifehegiefegiefgigfiffhhehfiifeheieefhehigeeihhhefhhghfififgfhhfghiffiifhgfhefffgffgeefhiihehfieihhfihigegggiiefgghigghhfhiiiegeeehieghggfefgegfihffefehifeehgehifigeiigef
rhigfhhfiehggffefhheehgfgighhifeheifeggiiefhhieggeihhffgghfhhgehiffeehfeeheeihgihiiigefeiihiheihfeefefheffghieggffhhhgegfhhgeigfigeiehfiiigeffegghgeeheihefiehgfggfgfihgeehffheehhhifehiefegihihegehhffiffeefhgifehiehehifeeffhfhfeighhefegghgfiigeegfe
rgigieiefihhhehfgiggfgieghgieieghieeifehghhfeiiihhfgfggehfieeghffefhhfhefhffghgfhfhiegfhhhfheffffgfiefihehfghiefeehegifeggfihghfgigifhhhffgfehhghhefihhigiheifhhfegiegiiifefiefehhfhfighfeeegeheggfggefhhgfhgghfgffhghhheeeieeigegggihehghhefh
rhefifhiiifgffgiggiefhfieighiiiiggehhfiggefhffgiehfffgefiieehfeghggfehfgiihgeghefffififehhegfgfeefheifeefeefgeiegeehihhhfeggheiefegffihiihhgigihgifiifighfehhfhehhhgghfigihhhgffiieheifeghigfigegggghefeeieefhfgghfiigihghfheehgegfhhieeheeghiigggfifeghfhiffgefggiehi
rgifgfifgffgighiiigehefgfgiehfhihgehefieigihigifhgffgifeheefifegegefhghgfgefffieeghhfieighgfiieffhiieghhfhfefeeggegeegigehefiehehgfegiihighfhehgfehhiigehihiifgefhghehhffiifiihgifgffiffhfeeeigfhifehihihheegeiiggeehhfiihiihfgheheeehfhhhefieef
righgefffighiheifiihieeihhgfgihehehegiiiffggggiehehieeffihghgfiefigiffeiegfgfgiehgihheiieiggehihegifeigefeihhhefhffhihgigfiiehgggieehgeggggeggheeeeihgfeieifehhhghhheeeiiiggfeiheehhiiehffffeifiiigigiffhhefheefgefffgggehheeegififeigggegieifhhfeegiiiigig
rgfigeeeefggfigeihhegieiffhgggfigeefehfeiheegighgeeffegghgifghgieeeehhgifggefiefgfihhihgfieeigiiifigfgiifffhggffeggefeieiieiigeheehgigfeeeeigffifhigeigieeeiifhihfhiegiegeifhgefgfigghiheiiigiigegfgfhiheiiehfgfhfegfiggfgfhfghigifhgfgggfhgeeehhfgieehfie
rgggefifehihghgehieeeeefhgfeeeiggfegefhefiehegihfifhgffeheefefhgiefigifhfhifehfiiggfffhffegffhehhfieehfhfeigefffeehfffhiigegegeiheffeiifiihfgfhgihfgifgehihfgegggehgeeiffghhfhgefhigffhghhhehgifghhghgfigfihifeegighhgefeehiggeegeiehefefgegfeghighiffeihehfheheeihegfeeigheggeifeheffiefghf
rihgfiggfhigiggffffghghheiiegfeigehheegfegegfihifegfiefifeghfgieegeeihhgeiihhigfiighfhhihgefiiffigfegegifhgfhfhifgeifeiigfhhefefehgghfffgeegghheehiheeeifhhiiegehfiihfegfeiheghhhefhghhffhghhiehffgfgehfggfhfghfgfefeegheiheiehggfhihhgegiehhheeeghgifeigfihfg
rehehehfgiehiifefhghgiiefhggifihhgiigigghheegigegiefhifigfihihfggefggiigifgfeiheehfhgeeffiigieifhheegfgfhgiehggiefiiffeieifffgeieefigfggefieegighffigheegffihhefiiehehggffgihifheeighiihgfihiiieeiegggifiieihfhhhggiiggfefifgeieeigigge
rffegfiefiehhigggieifeieefighhfhfifiegffffgggffgfgfiggfiighgfeggiehggeeihghhiiegfhfeegffieegehefheehefifegiifiheiigihifhihgffgighegeffffhghihffghigfhefihieghffhfhfiighggfheighifgffiigieifieiiggefheieggfgieghfffigffgheeigeiigihhfiehgfhffgiifhehihegefghh
rhgeigefgfifgiifgeghhehghigigfgeifghihihifihghffeififehifehhhghgigheeghieieeiffighhheghfihihfigefeggeghefhgggifiggeifheehieihhffhhhheifhgheiiifhffggfgiiheihegeefhihigiggihgefghieeeigehiffihfifgegfifeig
rfhhgefggiighieggfhheifgehefifeighiifghhhhefieegihgiehheghhhiighihhefhiiffffghehggiiggiigieieigehggfffegeheggegfifegefhigehhefeeegfffhifiiefggifefeeiffffeffhfhhiieeefhighgiefheihgeihhheeiefeigifiiigefegfghiiiihifieiieeghehhgighheifgfgeghihehhhgeghe
rieeehhgifgihffeheggfiehiefheefgiihfifeiihegfhefighgfieefhhgegiihihgfhhghieegefhigefhghigihgheifigeggiefeehggihfheifeefgiigiffefeghgfhehehhgeffhheehghhfiegffgghgeeeffiffgffeiehieggheegehhhgehihhgfffghheieiihfieeigggiegiehgfhfhiiihgifiigeeheghfeh
rhihhiehhgfiggfigeehiefegfgighieifeggfeeehgighhihiheffehgigiiiieegiihiieififfhfgifgeiiefhihihieefiiffifegfiiigfehheiieeiieheghehhegifhfhigieigeigghfifeffifeihfgehhffgghifeiihhfegegeehfffgfieeehfhfheiiigeeefhgehfefffggeeieffegiggghfhegegehg
reihegghfiigefefighffgiieghefhehhfihhfgeghihfifehififhhhggehefifgeihhfegfieheihhhgiggigifhiiieehgffeehefggfifeggihihhfifihgefgfhfiffhfgghfgeffggehehfifhiieehffifgefeehhfgeiiihfihffigfhfffghgffiigffgiiegeffhghhhigggefhfhheiifehgffighfgiie
rhgehhgeeefihigifiehgheegihegiiigieggghegffhhhgfigiggfiffefhihiigiffifffegfhhhighefggfihhehghghgggiheeiehhehfiefgiiighieeiiffehegghieeeehehfgehiigefeihgehhfegiifihfiefihfhegfffhheeghgihhehefghfhggheifgghihfghigehhggfeeggffhgfegggfhihiehehfggfe
reehihhhgffeihgheeiefifggggefiffghfffffihgfieiggffhggfiiefiffgheeffihieffheigihhehhieghefigihgihhgihffiiefhgeghggffgefhfegehfiifheeigfiihihehfefihhggheigfehgfeffegeffifhhifffghfhehhehfhhihiifgfhhegihegihfefigffgiheeihggihegeeegifefigeeghffigieeffiehhffhhhfeeeghgheghigff
rfhgfehigeiegffefghiiegfhgehhiiieghiiiefiegfheiiighhieggiighififeegiihfhhegfghefgffhheeeegefeigefeieegfhieffhfggifehfghffegfighhiihigfihfeefhieheehgiheehehiifghfhieieeheeieeeegghighgihgheffgfigefiegggghgihhghhheiefgiigeh
rgfgfhieefigehgehgifgihfgeiffhiigeiifhffifffihfiggfigfffhgigghfefgigegefhfhiffihigehefiiehfgiigeghiifihfhffiigehfehfhigheheieeiieehfifegifiieiiffeiiigiigfegffhgfgehegeghfheeihhihifehggehghfeghiefeghihgghgfghhegigfhihhhfeifehfhe
rhffhhhghgfhghehghfhfegeghfghieiihghihggghgihgiehehfggffeihihheeighheeggeihehgefeehghfihhigheihigfgghighhehheeeefeiffeifeieehhigghgegfigfieheghhghifheghfgeghiieifefgfeffhifeefehefheeggeiihihehgggfiiiggfehffefffihhhehhfhieegihfgifghhehhffhiifhgegheeififhhgfgeg
reighfeiihihgffeheeegfhhegigefihheeffhgefgefeifefheiiiiihhihfehihfhffegiiieihhiefgfhheifihigfegifgegiififieiggffigiihheiifhefefgghfgeehfihefgiihfhgfgighffhiffifieefehgfheehiifehfigefehgehifgggiiigihhihhggeieegiggeifhifighhiggeiffeeieeieffehei
reghhggihfifhgeehhfhififgfghgeehgggfgfgehiihffhfeegfhfgeiihfihghgiiigigghhefiiififgiifiieigfiiefhfhhgeeehfhiehffieefgfeieghigeggheefghhgiigfgeihefiigffiffhefggfhegeehhigggfgffighffigeeeegfgeiggiegghhfggifheegeheegggggeefgeffifehfeihge
rieeiifeihghgeeiehhgiffefifhefeeeghgffggfieefgegheiggheeihieefggieigfhgieiefggeggeifefiieeigfgigifehiigihgfgffiihfgegheghffgeffeghehgghfgfehieiefieeggehifgfgeffifgffeieheeiggiefgeeieeegigfeeeiigggigggigfhihhgehhffhihhhfehfiieffiehhiheig
regeghehieiieggehiigfhifhiiegfigfiihgiihfhighfgfgihiiiggihifefeheiiiheieehihihiiiehhiefeegiehifhieiighigfefhigghgggiieiighgfhhfiefhgiefhegffeeeigihffeeheifegeiifehgeeeeghiihfigeihffffgeeieeifhiegfgehfhgfihgfehefeheihgheiigieiffffgggiefeggehiie
rgiihhihgfgfffgegfgghhgihgfieheeeffeigifhhggefgigfhefffehefehfgeghfhegiiehhgfeiihgfihhfheieheghieighhhiifghhigigeghegefgifegifhfgfiffegegehfhieefigifefegiihghifffggffgfggigfeiefhfgiiifeifggeihhhggeghiigfhigheefiieigfehhgfi
rgfhfhehhihhghgfhefifhiggegfffigheggfgeihegghgehiggegihifegighggfifgighighiheifihfieeighefhieehffeeeihgffffhehiiffffeeiggifgigefiehheefgfhgihgeihfgeihhfhfeihegigfgghifeiffghfhhiehheffeefehhgeeegeihhfgigighgggifhgiigihiefieiiifhhiieihghfifffifhhege
rhgegfghgfifihgeihghfhfgfeefefieffeeighfigiehigggfghehhheheffifhgihhhiiihfefegfgieeffeifiigeefeiefghegeheegeiegheiffefeigifeegighghhfhhfeehigeehffffihgihifeheefiefgefeeihffehfgeeefheghfhfiffggheehfgeghfihegggghefeeffhggfhfihfffiefghe
rhgeeiieifhifigegihgeifheihhfgffghhgeigfeehggeiigghiifhffhiggfeifehfffefhhegeihgigghhgiiefhggefegighgiehgeeggfefhifhfgehheggfhhhiggifiiefighgifehiffiffifhgifgehfigiefifgfgehegheeefffeegifehfhigghgegfhfheihigeeifh
rhieehgegeihhhggifhggfihgefieehihgihghiiieeihgfgeefefghehiehehiegiiiiefhefgeeiheifegifhgeegghghehifgfghhhehhfhfgehgfiehgggigfigiheifhiifihghfeghhiiefighgfehfiefefhheiffgeifegiihiieehhgiihghefhffhfegihgffheeihfehghgfihfgffegi
rfggfigfghgeheffffgeffieieigiiihegfifhgehgghghfefhhgigeegihhiggffegeheehghffhgfghififfefhhiiehgiheiheffifiegifigheffifggfihgiehheghgegfgfhfegeieghffffehghghieffigffigeehfhefigigegffeiehhiihghiiiehh
rfffgfhfeegeffhifieggffgeffeehefffgfihgehfgfgefifhfhfieffhfhhgieeihegggghfighgfigighiiigihegggighiigffifieigieffgeifffeeieefifegfgiieffeheghgfiihfgggggheifihfiieehfhifgfegihhhiihfheefeegghffihhgigiefehhfffgehehfeie
rhiieiehhifgehhhfffigihfgffeiiiigeigifeiehghggfehgehheiehfhgeggihffighieffheeifihhghhhihiieffgefhhfhfeeehhehihiifhgfghihgggfiigehehfehhehifiigehfgfhhhheeehiefiehihfigfihieggeehhghhefegiiffghheifffeeehifhffhffgiiihefifeehhheifgeggfghi
reegifihhehfgfghfghfgifhhfgeieeheeffigggggeghggeffhhgihgfhiehifeegifffeehgghfeeghigghgiiehgeghhiggeheehhgffhhighhiefiihfiegfegfgfhefiefhfiifhfifhiegehhiegheffigiieeffihfhffifhighhehiihfieeeigeeheffffiihffffehffhieeifiihgehgefififeighgeihhifieg
riefgfgfhgiggggefeeggeihfiffeehgiheffgieihghgffifhhfiefeiihgiffefghhihefhifffigihgegghiggeffhgheiiefigigfgeigiiggffieehggfffiiheeehigiihgfeffihegifgfeeifhggieheghfiheieiihgehghgheeegigehfgeiggeefhfhegghihffhefheghgfeeggfifhigggeeigighg
refeggfiiffefiefgiigefiihfhgfgeeifhfffgegiheeefiffffihgefeggieehhhfifhghighfggeheiffghfhhfhihhghheeiegiefifhfihhhiegghegfeffeeehgeigihiehhefghgeigihgiefghggeghgggfhhfhhiefhhheggieeeghggeeghefgiehghfgggigggggehi
rghgeffghfghiegihggfifeehehggeefiiefgihgefeihifhfefhighiihgfeiiieggifhfhifiihgiiheigihfhhefigfegeeghhhhigghegifeihiihgifefggieiiehihggiffihhhieggihgihiifffgfghhfgfefefgiifiehgeeggigfheefgheegfgefhhihihfifihfieh
rhegheifhighfhhigfiffhggihggifeigghggiieihfgfihegggifiheieeeigfhieehfffeigefhhhgfefifefggfgheififghghiehhefhhfefigeeighheggffeggggehhehfefiegggfiiiefiegfieheggiggieigifeeihgffhgeeiffhhgehgieifehgihhfhhehfhgfgggffefigfigfifgifffiiieefe
rhfgihgfehhhgfghehgfgiifefgifgehehfefehfhgggeieeigfhhgihhiifffeiihifhiiffhefgefhiigeihhggeifffehiffgeeeiigghgfghgfhfiiiiieegfegghhieffighiegeigieffgggfhifeeheghhhhffehfifhfgeehhhegehefihfiheghegefghgffgiieeiheffhifieffiihhhi
reeeeeefgghhgeghehfhgihgffheiheeeehefhieeghegehihihgehffifgeiiffeighghhigfffffefghhhfiigehhfhfghefhiifehgiiheeiheifihgfeffffiefigiehehgggfgghhgigeeghfgfeegiehfighhgfgfhhhhifgeeheghhiihfheffffeifihhghhefghigegigghhfhifhgifeiffeffgiei
rfiigiifhfhfffeegeifgegehifeheeghifehghihfgfiifhegigghifiefgghihigeeiiiigfegfhehfggegfhghfigifefeffgggfihihfifighhhgiffihhgiiiefefhghgiihggghiehgefihghheghfgehighggghheefhigeiigeeeeiiehiieiiehgihegfeiieefgehfehieiehhigeeheiefigeeeeg
rgehgehhhggefghfhggieiehfiehfghhefighggfieghigihgfigfigihegighegiifgfffhhefgiegfiffeehiehhgffgeghigighieeeiihghgeighghhhfgfefhgiiiffiefifhiieghghgeggfehhheeghffigeihfhffigfheifgffigfihggeiefgfigeiffegeg
rffggifheghihffehggifiefiiggffehifgfghghggifegfhfiighehifgghigheefggffgihfehehhfggigigifefffeifegegifgefhgffeigegfiffhihfgffgihfeheheegeihfehigggfhegehhgfgffehfeefehhhggfiggfiehigeifeiigeeeehehehhefeigefghegheihfg
rfeihhieehfheffgiighfeeihgheihfhfigeiigiiheffhheigiehighighegfeieeffihfeihfehfhhigeihgggfgiihehfefgfiehehifieigfhgefgifhfegegghiheeefeefifeggieggffigggiggfgiifefieiiehfihhhehfgfghifgeeihgfiifehheghheihhhhifgeegffeh
rfffiieeghheegfehehheigfhefhfieeffhghfgeigfifiifiiegeihfigihfieigefefhfegifiegefighigighfhhighigieigfghhffghieehghifgighgeegfiigfhigfififehggeeghfefegfhefehefegfffififieffifhfiigggiiefggieefifheffeggghhfiheeighfhghefeffeheif
rfeihifeifheihghgegfiehfffghihggfifieiffeifihieefghfghieefiffhigeghegiigiegififefgheegfgegiighhgegegfiegfifeeegfgehgifgihfhhiggffgfghfggghgghiegfheegifeeghfihggehfffhheigighieiegigfeihieiehf
rgegifegifffefigheigfheiihhigiiefeieheehhhfhfhgiehfgfhfffigehghggiigfigieiefigfifihieiehfhifgihfhhheiffigfhfffgggfhgeifhigeffhgfhehhfeihfgfieihhggeihhhgehehfggeieehgfhffeeffifefgiigghhghhigefhhhfeigfgiiigheg
rfifggfegheeiifgiigffiehfiggfghehifghiieeihfeiiiefgheifiheffiffifefifegffehffihfegfhghggeeieggihghiihfeefehgihegfggegfgifhfhfffhffiiggffgehieffhhhhgihfefhfgfghgeghefeffgfegghhgfffgfhihhegfeghegfehhhiegiefghfefgihgi
rhefeffhfigefeheefgffefffhiihgfigigegiefegffgfhigghehffiiheiegehhhhgiehfgfgihfighihhefhiihfggfggfggggehiifhgiiiihihehheghhfffheheggiefhiiiheegffiffgihfhfhfhfhhifeefhigieeieiffhgegihiieggeeehffhgiiffhhfehffgfegifgheggiigegfhhhhgffgiegih
rehifgeieeeigiigffhefheeihhehefhfehigeeifeihgegeheeehgeifeffhhefheggeggfehgghiifeeheifggfhifffgffifhgheghgfhfefhgefihhffhghghehfgigiiihifigifieiffhiffeiihfifghhheghigigfghiheefheeiggfhhiiihgigihgeefghehghhhfgefhgffgffgei
rifhfieffgfiiihhihifihghfhfgfhifieigfgigfefeffegegffehihfgeegffifgfgfefggiheehhgeihgieeggggehefieghfefiieiehgegeffiehegggeiheeigheiefeiiifghfihighigeieifighegfegeeeeiifhhifeefgegeefgfifihhhiegfegfgiigghhghigeiiegfg
rgihehhfeegfieehigfgeehgghhhfeiegieiiheihggggghhfihiffhfffiiffffefeiifegehghgeffffeiieeffggihieeehfgifiifhiiehefigfiihgggfheefghiheegfihefieffiehgfieefhgeeifhgehggeihifihheeiheffeighifefefihhegee
rhiffegehgfhihifihghfgigffgifighehefhghhfefghhigfhghefgfiihgegfeehgeeeiheggeehiiffggefeiehigeehghehegieefgeifghghgfehggeefghfgefgehgfhgegiihfghgfigififighihhifegiihifhghigihefigfehefiegheeeggghggeefihgfef
rihefihigifgfighifffeeigegfffghgffeghhieieiffhffegiggeieieffifehggggefighhheifhfighheihiffggghegehihfieeiegefefeififeifhfefehfgfiiifhihiigegifhehigeheifeegfhfgeefheehefeghihhihifiehefigeegggggheheeeh
reghiggifhgghfigefighffhfiefffhffeifihgegiigghigfffggggehghfhfgghgehggefhgifgeeifihffefeggfhefeieeigiiiifeeieheggehhefeieigfgiegfffeegeiggeheggiggeghehiffghgieieifgffhifhihgfhihhhheggiefigeghgfeeghhfiie
refhhhfhfeeeiiefiehfhfihffifeeggeffhfihgiiefeeifggifhhffggeihifheiifigfehfffhegheifeigihgigeeihfegifgggeeeffhfieeeefiiefegffhgiiiheffiihgeigfhghhgehgefighefgigheighfffhffeeighefheeefehfefhge
rggiieeefehgghiiiihiiheehhiffghfiegeghghefhhfgiefgegheifehihfiigfhehfggihegggfgeiigiffgfegfhfgehfefihehheegiiefefhihgffghhegeggheeheffehihehefhfegigehfifhhhgegggeihheiihighggfgfffgiihgifeghifeiffefgiihiiefeehhfgihe
rfghiffhhheifeehffheeiggigfgieeiiegefehihhhgeeggffihefffeihiffegfigiiffefigigfhhggigighffifiehghhiiggeifgfeiehigghgheeehffhfigfiffgfffghegiegiiigfheieeehegggeiiffghiihfhhhgiefhffhefffifeii
reeegfgggfgffefhiffhehhefihhfhigfigegigfgfihihfhfghfgiifeifhegeffgfehehghheghhhihhfegghefihffigiheiighffhihfgfeeehhigfiifeeiieiigeeghghhfhfeggfigiheeeihefhfhighiheegehhheeeiffhgehegieghhefigiieffgffgehegghifff
rffhffgfggghfigiehhgghiehfhfgfghiehgighhiffhgfgifefhhgiffieheggfegifegifegiihhieigeieihfhhieghgihhehefihifgiffieiegifggeefgigfieifeehfhigehiiefhgeihgfeiihfhighihhfhgfgihheghieeffeiifeiffiehefihgig
rhigggiigegigeihegefhgeigeehfehhegggiiihfhgehhhefffieiegfhfihfehhihihigegieggfhhgfeigeffhieheeihgggeffgeeegehghgfefhfiifigefifgfhfifhfhhhghfeihhiffgfhiggfhfgeeggieeghefeiigeeeffiigieffhe
riggiiieffhigifhhihhffgeefighgehggghhgifeiegeighegifihgiihigfighiehiiiffhhihghiifefehhfifeigghgfehgighffigffeehhgihegegegfeiiigegefghieghfffiiifehiiefiigfihffhefgggfgfefifeegheggigeiggghfhfffehhieh
regfeefggfhefgifhhfffifeeiefhifhfeihegfieiffhfhgiiehhheehefhfihgigfffghfhihfehegggggfggiifieegigiehgifhifhhhfheefiggfghghggeiigeffgfiggghefiiheghiffhfihhhiigfiiihgfgiheefgfegeehffiiegg
rffhheggfgigiffghgifihfihihghhegiheehigehiiggefeeeffeifihifhifefggfgfegifghhigefgfhhefgegeefieifighgehffgggfigehfhhhfgfhhfigifehhhfehiiehfigeihhifieiehifiheehffhgfgfeigheffiifehegieehigffifggiiihhfeeg
refeghfgfiegigeefhgffihgiihihhfehiggghgeiigififhihfehihiifhiffffehihhfhhehihgehgiigifghgehfhigeiefieiehfhgiehegiighgffigfeeeigffhhgghehheehhehifggiheegffehggfififeihfg
rhfhhhfgiefeeffhgihgfgigehefhiieieehefgfhfgigeggigigiheeiehgfgifiefiheegfihiieheighefeeeeeigieehefiffeehfhiheghiffighgifiehifeghfiiifiigieeiiiefggeffegeggihiigghhfiehhihifeeffihfgihfgfhhfigefgihhfhgehhhheeffehighe
riifgfegfgiggeheifeiifffggiefffggeeihehggefieeffhiegeffgheegfffhhfiifhffhgeeiifghhgeihgieihfeifiegeiefeeegegfhfffefgefgeeehfgfggighiehggfifihhhihfgfgffhhefefeeeihgfifeeegfhgiegfg
rheeehhgfiefihgighhhiehfgihhigfhfihfifefgeifhghgefefgfifegffeeihiifhefihhffihifehggghfeefffhfghefifheeheheifffifehhefhggghgheefhigffieihghfhfegheeegfgfheihgffgheife
rieeffhfifehffehiheiefgegfggffihgfhegiiieiifeigfgieheeeifgiiihhhihiighhgggfefehfiiffffgghfhiffhfeggigeiiigfegehhfifgehfigiehhhfhghiiehfiegggieggehfggghfiiiggfgefhfgggfgghghfifhhgeggieheigigiiighffeif
rgehhfiiiihfheghhgheigfhffhiiiiehihfgeghifihhifihffgihhgffgeefffgfiifgiheefeiiihhfgifefiiefffggefgfifeghfhhgehghfeiggehffihiiegeihfgiiegiiiigiieihiffgeifhhgeeigffigeeiifefeieeefiighifigfigihieifgffhhghiief
rieghiifegggihghghhhigggeefeiegeieeifiggggiheffiefhfheiegegffeheehgfeieiheiiheeeheghefeghgeigfgifihhehgiefefhgfhhefhhfhgfefhheeeihhgfhhifeeegfeeiifgefffheggegggggfeeiigfiihhffgegffeeiheheegiifgegiffhghifffgef
rfhihhffhiifieeeihgiifggighgegifegfhhgffheigfgheegfihfhiefheegfegieefgfeghieeghegifegegghegihffeeieifhiefehfhfhegegeeiiegifeehggiifegggfheihhhefeihgfighhiheighhffeeighiehihhiiheigfiiigeieifhiiiieeihfihe
rgffifgehhfhhfhifefiieefghehiffgehhfiegeihhifhhghfheiifhihfefhgfhfhihgiigieihifhggehhfggfeggegieeiehhfhgfhffiefiggggefigihiieeeefgfihigfieiighhfeghefgiehffehhheeiffeeiihfheihiihgffg
rffeiiggheghffffhfffgfifghggehhgffieeiehfiiheeiihgeeffhhiggeheifffgfeiefhififfeeeggfiffhehehhgefhihehehffegghggegegfhefeigiiiifihffhffighiihhiiefhffhhfigefhfgifeg
rifhfeieighehfhfgiggfhihigghhhhehfiffhhhghhfigiihhffgheheigiggfgieheehhegifhhggfffheiehiigehggfhifegefgieeihggfehfggfhhggffiegifeehgfgffgffgeiiefiiigggieefeieiiggghgefffiehi
rghgfgfhgeigegeieifghhhehiigfigehhiieeiihfgeeigehhehhhffieeefegehffeifeiiiiihfehigfggifhihihhhefgfihiighhfhheehiiiiffgieeeeffeihghhhgegghgghgeefgiihfeehffiifigegefgghfeeififfgheffhfifiefh
rhegfiighfeeigfehghehhhfffegheeffefggefeihgeeeghheehehiffeeighfeeiggfhegfgghhfhhfhhhhgfeiiiiggighieeiggfigfihgigegefgghhfighiigghgggieefigggiifffiiehgiiihihgfeefhegeeeiiehh
rigggfhhifieggfeggegeeieeeefiggefiifegffeefgiggffefgeeihgfiiihiggehigighfhefeeiiegheegeihehieigeiefgeighgifeififeiiefieffefgehgiheheiefiggiheeefiihgheheffihihgehhghehighefhgff
rfgeeegegegfhffhhefheffifffgeheffghfiffifhgggiegffefiigeehiehfiihgeeehfiihffgfheiifhhefeeefhggggiiighefgigehehiiiggihheefhihehgfhghfgiehheghehggggfgghhhhghhefgehefgghfeeeffehhggfeeghheggfieh
rehehgighegeheeheefgeffeffieiheieheifihffgiiefheffihieheiifhhfhegeieiihhigiiiifgeffihfeghhhfifhfhhhgiggeigiefhhiifegieggeeegfihiiihefhfeggheehiiieiegfhhfeeiieehiefghgegihhefgfgigiiegihefg
rifiehgfgghgeiehfhghggggfhfefffffiehigigeifeegeggggefiggghifggghighhgggihifehfggeiggfffeghfiehifhgggfifieiihgihgeeffihgfhheeifgghifihghfhifehigigigfiiggeigfefehefifegghhhhiegeghghgigffffghggh
rehgfefehihheeeegieghiiggghiegheghghhhhfeifgffeigefhffeheeifggfgefehffffgifhefgeffeiiegiefgieffegiehghgighgiigigeififhehfhehffhhgefihehehhiigffggghighiehihihhiehhghhehiehhgfgihiiiihifhege
rheiffghiheegheeefggiiffefghggeghhhffhfefhehfeeihefhfifhhhfeegieeiffggheffeihfhghigifhgifhfhggiifegieffhigggeffhehihhhgiheefgieifeefffighgiehhhefgfeghffffghgigiiiggfgifff
rgffghgeiigeheffgiiiiehhghifihigeehgihiegiegihiieehighgifihhigefhihigefffifeggfiiihfehghiefhhgihhiigigegffefhfeghfehihfehhhhgghehiiegigefghfiiiigighihhhhfhgeighhfhgffhiefefgf
reihggghgghhffegeieiihgghfhihfieghhfhefeeefhhfehgeiieffhifehhihgghhgegeegfhgihggfghfefgehghhfhgefghfihghfgeefhigggegfggfieighhhfehhehghfiffeihifggehihifeeefhegfhefhiffigefhhfieeefieegehhffhfgife
rihgfgffheffihffihhgeieeghfhhgghfegigiggihiegeihegehhghfhfffhhfgeifiefgfihfheegfeiihiifgfhhihihfegeehifigehhggigfeheiiieiggeiefiifgghegeggeeiiigigefiifhgeehffieefehigefifheehgge
rghfgfgfggieihgiggihfiigeeghhegeiegfhiigfhggiehhggffighigfigffhghgigfhiiiiieigehgfiheeiefigiegffighghigghhiigiefgfigfiigeghefeffgfhehgiheeehiefhffheggigfhihhhigfieigf
reigeihgfgeieefiehhhifhggeifgeeigehgifieeeiggggggeegheiehehehifeiieehihhfgfigefigifefhgihgghfhigeihhefhieihgffgegegihihiiggefhefiefehifhfihiggeeggffifehiieehehggfiegeihfihifhfeegfi
rhhigheihgieeegehifhhefghfeiiggegfeefgfiiffiheghehghfegiigehfeehhgeiighiefeeggiifhigefhiefiffgfiiieifeehfehehiifiheeiefffhiighefgegegghiehieefffihffheggeihggieifhifgiegifiiiefihigifffhe
rfggehhihieghgghefieigfighheifighffefgiffffeehefiihegiefihhegggeffeihgfihgfigfghheigfieeiheffefifihiffefegegeihhiggefggefeiieeehieiegiiihfiifgigigegigigghhiihgeifhhhg
rgfhfgieggiiifeffefieeeiefehiefhgeffihffghgffegigefghfhhihfehehhgeffeiegighfieefhfifegiihgehiefhgiegfeieigfieggheffefeeiiggigfgggiihffihheieifeehfgihgeefgffeehhegf
rhhefihefggiiggghffhfhegihgifihgegefhhiigheiehfeiihggefhheiighigefeeiifhiggfeeffeieighheeiggghfiigiehhhhehighheegeefheghifhgiifhffheiheffihgihggegheighiehfihiifeiffhhifeiei
rihfiggfgfehgeihhhhefghiggfigeifeiefiihhgeffegefgehegfgeehfiheheghifiiihigefieifegiiffffighiefegffegefefhegigggiffiggefhhiheeeihfiefgegeffieeheg
reiiifehiifffheiiifgfgihegiehheeefiihgiihgfeeffiheffgggieffhfghfeihhfieegfggieigegfighhgfeghigffffeefeeehiggfhgghefeegifihfeehfhfhhieeihfihhggegghggghhhfghhgeihhghiegihf
rgffihehihefhfggheeegiehiegfehihffigiefeehieifgifhffiiihihiifihigiihfeifehigfffiieefiiihifhfghgigfiihegihfffhifiifehhgighgegehhifghehhfhfiefhhfeiheigiiefiihighfehhehfeeeghe
refggehfigeeigfifiiifeihhehegffefgghiegihgfiigehheiigigefhhiifighhfhieiigeeiieihghgigggiegeihfhfiffefeiigfeggfefiifgfhhhghieihheieffgggeiiifefiieehiefggfgigehhfh
riggfiiehhhefeegehhhgggeigefehheigggigeigheihehfefiihfgeegheeheffhheghiiiihiffegifheeegegehiiheehfgeifehhehiiehhigefigfihfegefiegffhihgghgiiggeffegfhfehgggihfggi
rhheheefgihffhehhgffehfeehfffheghhhfehegghfeffeiefhfiihgeihfehihiieigeifeefffgefeeigggigiieiiiihhfhgfihhigigfghhgeefifhheiieefefgeeiifiehigffhiehgiihihiei
rffefihiiihehieifhgfheieiiehiiiegghfffeggeeeieghiiiiiffhgfghhhheefhhihgfigieefefggeghhegiigiiegfieiefgigfhgffeghgigggeiiifhfhegifgeifffgfefgehggeeigeehfhgggighg
rfefgfgfghgfehihhfigheffhefgfhfiifghegfggiigieggfgffgiigieghehifffifeffggegfeiehffiefeegfgehgfeheigegheieieehghgiiggigigfgfhhfihgffeffifegfeifgegggffifhfgffe
reeghhgffighfehghheeggihfehiigfiihfhhiiihigfigeheeegeihhifhhefieffhigihghgeeieeeheiheiffffghgfheihifhihhfheffefifgghgeieghhfegifghhghfhighghfeig
rhfgehhgggefiieeihefhgiefhgiihhhhfghfegfiigefgfegffhehhfhggiggieefegfghhgghhffeehfhefhiiffhefgffefeiieghieheghfgfighehihghhhgifhfiggffgffefeeiiffiffgf
riifiieifhgggfhhhigehiggiehegigeegfghffigeffhgghffhiggifgghiifffeghhffeehfffeeigfihifggigfehigiifeiifiiehhfhhhggifhfeegihigghiheihfgifggffhffee
rehhhiigeigegeiggeeigeggihegfhhghfeigffefheeffghfegeeiifiiifgiehgegegegeigeghgefgehifhffigiifighffeefgegieiieggigfihigfhigighfeeifgheheghgfeifehgfhh
rhehiihfhffefigfggfiheghfhhigfheieihfgffhhffifgfhfgffegeeeihiihhfgihfeieehfeffhfgfeehgehigfhheggihefhffififgefiigigehiighgfggeighfefgfgfgehegifiehghhhffegeegiiggihgghhfhffe
rhhghhighieefigfhigeffehehfggeeiheffigegfeieigfifiiigehehfigfiiieehieehhhhhigeiefhieeigfffhififheiigfgefgifffefiehffgigeggeegfhiggfhgheiihh
reeifegehgfgghggiieiegghhffegfhehhegeigfhhhfheeiffihehfeieefhegheieheiiiiigegiihghgeheegeffhfegiiigfifgeefeiheheegeighfhfghiieheeegfhfffegehiheigfhefgegf
rhfffefhghifggggfgeeheeehhgieghiheefgfiigeeigghighieeigfeeegiffiffeeeiigighiffhhiiefihgfeeeffgfiehieeegfgeeiheiieeffehgeeghffiegefieg
rififgeegeigeeeefggfgeeegeiggigfheefgffghffhhgeffiheihfheeeifiefehhgfifighihgiihhiiiggheieifegieeiihfhghfffhghhgggfgffgfghigehigheeihiifghffheheiggfhfgeehighegfhighi
riehiheghhihgiffehhghegfgieehiiihfeiiefeefeheffgfieifieiheiheeeeheeeghegfeghfefiehhhgegghieefeeeggeihggigfhegfiiiighigegfeggheieifeghigggggihhegg
rheieghhifgghgegegeififhffeiiehieehegfefihfigfgghihfhgfihfegghhgefegegeieffiihgiigegighgheggeegeiiiifieihfhifgieeigfhgfighhie
rgiifheeeffeiiifieffgfgehhfhhegfgigfihfifgfghhhghgeehhfhhghgifegggefghhegihegfeheehhefiiighhehggggieeiegheehggfigfhhhgigfgggggf
rifeiifghgghefghfeifeiefhfhfegegffihefefhiiefghgiiefieggfgegfgigieeffggigiiehiiiiigeiiigheiigehhffgghfigghgghffiehffieiigehghgeieihhhifeeehegiiieghiggieiigghi
rhhfigiheihgihififfffgfeffiheiffgeghihgfhghifeeghfiiiefgheeeiififfgeifhiifighfifeegfghheffggefhfgfhhifehifgegghgifhgfiiiegggheeghheh
rfghehfgfefeigiheeheggiiefiieiieeihggfehfffheghgghiiehegeifghhgegggfiiegghggefggifhgehfgihiihhigehhieeighfgeiiifgghigiffigeiefhfgggiihfheeeffeg
riggheigheiiegghefgieghggeigffiiggheigighfhehfeeihieggifiheffeghieihheehfihfgeffhhhgggegffhghefgeggeigefhhigihfifiihgieegeigggieifefffiffhigfe
rigihhhiehifhfhehhgffhgigiegeeigihfghehieiehfefffhgghgfgfhihheegfhfieehfiefgfghggffehgifefffffhgiegegghhhihfghefifgiehggiehhfgghifehihhigfefeehfh
rghheggghfefegffifieiiiihfgehehfihfgfhifififefgfghfihgefhghfefiieefhfgighhiiihgigfeghehgiheiiefigighghheggfhgfiigffeffihieiigeefeeeiheigihhfigfhiihghhggeghgiief
rieeigggfeehfifieeihhiehiifhigighfhhieggggeehhfifegigiiffhggefifiifeihhhgeeeifieihffhfififhfiiiiiefehiiegihfhghgfihfggghfggefffeghfgigeffhifeghhghifffeghi
rigefgifeiegigfifgfffeefifghhfhgheeieigehgeiffheeefhgfefiifhfggfiggiiiggfgieegegihffffeeefeheefeghfhghhfggfifhgffegifiihfgif
rgehfieehheihggiheffhffgieieffieefefgehffeefghehegiieefefeeihffhgggeighghhhehiefheehgheefgeiehehggegfhfihegiigegiggggeieg
rieeeghgfefgehieefiiefheegieihegeggeigigihefhifhghigfigihhihgigiifiheefieheeiheffihhehgihhiegfifgeggheheeefihfegheeheiiighfffhhheggeggfg
riihheeehegihfhieigfeeffhhehghffgeigfiifghgeifffghhifieiefigffiehhefhihgheiihefghfgfegeeegefeiihiieieefegeehghehigifggigiifiegiiffihfg
rifhfieifheiehhgggfhhghgfeehiiffhgffhigeigfigifehiegfifefghgffhffggihifghigeehgihhffigfefigghgeifghihggfffigfffifihghigeffgifhhgghifehigieiegegefe
rhiigieiifgiiffheiehfgifheeeiffiifefgfgfiieihgihhfiiiehighefihgefhiiffeehffheefeggehehighfiheheffieghhhhiiffgiffihfifefgiggifgggiegghgeg
rhheggfhfefehiiehfgiighifhhefegeheefggfigefgfehiigeeihiggggeiihefhfigiefffiggghhfhhhihehgeegfhghgegifgfehgggiheghiegifghhheifig
rhffeehheieghfgihfefhiifggiefgffheghehhgiefghihfehihihfiegfgeiehighfgfhfhgiffgifhifggefhgigiigghfggiegehifieiihihgfggeeiiifhh
reiehhfhehieehgfifeiehgghiheiieieifeggehfieheifiefigfhigghghighiiiffigfgfhehhfheiiheigifgfggighefghgieigeifhgifheifiheghiigefgeei
rhghegffhgfhhghefiiggfefhgffiffiifieeehhiihiggiehegeiifghiheegigheghhehiigihfhiiffgehegfegfeiggihfifhheegfhhgiihhhhfiggifff
rhhfghigihggeieeigeeghigfeihiffgfehhhhgehiieeieiieeheffffegghhiieeefeifhighfhefgfhhhiiggffiefefgehhehfeiheeffhfihiiieff
rfgghihgheefheihfgfieighhhiggfffhhhfihegifeghigeheifihfgfhgfihgghefhifeeihieghehifiefgehegieehghhehiiffhieeffefehegehgeeifefieggeei
rifeeeheiihefhhhhhfhheiiihifhfhgheieggghhgiifieigfeghifgeghhfigffhfhhegfhhhigheiiefigegiigigfhhgfihieeheehigffhgifffhegehfg
rfifieeiggiggfehhhehgifegefiefgggfhhhfggehihifhifhihiffhhiihefgiihhhfggfhgigehighhgefhhigeiihgiheihhfeififiefeiiehfgigfhgfheeieghheff
rihegighfhefgfefhgfgeihgeeieiigeegghhehihhgeehhegeegfeigeegiffffeifhfeiihigegehighhihihefeegihhiigeegfegeieiiheihehhifheheggihihgifigfhee
rhiffegfeeighhiihihiggeihfefihffigieggieihgehfiiegeigeeehghihfegigihihheigegfihhiihffehehgifegeiiie
reheeghhfiieghigfeheghiififffgefieffififgiheiiiffifiigheffhiefgfffghgiieeigihfgiheeggeefhheeiefhfffeegeghihfh
rfgffehfghgfigfeihheffffhhehehihfifhffihghifghfghggiheeifggfeifghggihhgefihhgeeegeiggffhhfieeegeiffhieeeiifhifehhfefgiigef
rhghgghihfhhffeegefeffigigghfieiighiifhighieffhhgfihhegigigefieehhfgiihhegeffhghehfeheigehifiihgieiefihfhieiiigfgefgfg
rfheeiieiffigghhgfgffhhehiiehffegfhhgieghhhgeffhhefieighffiiegigiigfiieihifeeihhieegfgegefhefhegigehifgiefieehfgefifeifehihiihfigfi
rfgieieegeehgeffhfhfhhhfggfehifegfiegfgifgifieiihifggfefhgfifeiefeehfgeiiieeegeefhgfiegigfeefieiihgg
reiggiggffifeiffhheeefegggghheffhghefgiiifhfefifiiffhhhgeefihighfeheiifeeffhgeihggieegiheeieifhhhheggfeehfegiiffh
reheeghgeggfeeiheifihfffifhegffeiffififfiegigghghfffihieiefghiighefigiehiigfhgegegefggghgeeeigeggfffhhighiffhfeiehe
rgegfighfigfheeghheegeieiggihiiiiihghhgeiefggfiefgeiifihfhefeieifffifhfeeeighfeeegfiigeghghhhfgigefeeiefifhhghegff
rggeifhfifieefigifhhfihhihgehehfiefhhefghgeieffihfhfgffgiiiifgeeifeghhfgehhfefeehhfefhigihfeghgheieegiigggegfhgfh
rifeihiehfghfiffhgigfhfhhghfeggehegghgiiefgfeheegigeiifihieehiegehfegfigghhegeefiegffeeiihfggffifhehifghefhihfeehif
riiheehhefifehigheifiiiieggggegeffihigfiehghfieiifgeefggiiehegihehgfgheehhhigefhgefighihiiffheehegeegggfgggigeefffh
refghefigfggfifffefhfhefeehgfihfifhifffeghgiiegffhiiiggfgfheehggighgiihfiggihegfehgieegifeeheieffii
reeiiefffffhiifgeighhheeffiiifeefeieghghiehiiehefeeiheefhigheihigefiheeifhegehifhihhgegeffeiffehffii
rgfheefggiifehfhgfghiiheeieeggififgfheeeiihieiegggggfhihiehggeehhiffifhifiehhegheeefhfegfefeegehffffhggffiifgfighfhhhefifgeh
rfeghiefgieheiighghefefihfgiigfhhighhifeifeihihhhiifiehiheheighehgeffgheehgeigigfhfgeifhigeffhhighefeehheehfeieh
riffiegegfehgfffefhfihegeggfigghhhihihefegfieihfefgigifgifihehhhfghghhheffifeiiffigehigighegfhe
rehighghheiiieiehgiegeffihefehehhegfhfifieghgfhehhhgefiigfhgiheehifhfgiegfegeeieeghefigheegfeefeig
rhgfigfgihgegeegefhihhfeegeeieghhiegihihhiheifiigieggfgehgggiihgfhfehgefffhgghhfihhiigihffgeheiieefhihffieefeigigghgi
rigehfgfgfgiheehhffhhffhefhhhhgehfghgeifhhfghhgfihieifhgghegiigieegigffeiiigifheieeffiheieghfgghgigfgehhfheeffffhhifgifgf
regggeeffigiefghfefgfieigiggehffhhhhehigeifgehefehhfgiggeiifiggeehhffiehhfeefffgigeihefefghfifhfihgggiffefhiighfih
reihhfgeehffhggfgfhfififehggfhhfeigeeigeihhghgeeihhhggfigffeffiiefiegihfifegfeieeheggifgeiihehgefghhhfigife
reffggihiiihhiggihhgeifheiffffhhfiefffihehfeieehhhgfihiighhiifigeihifighieieeiffihgeghgffegg
rfgehfeggeffffggifhgghiggiiihifeghgfghhieeghhieigeffigifgegeeiggiehfeihgfeefghffhghigihiieffieif
rgiggeeffhieggfegeeigighigfeigfeihgieegihfigeegeehieifhhhgfgiigeigieggigehihehhgfggfhhfheihifgiei
rfefefheiihihfgfefieihiiiieefgffhhiheeefiffiiehefiefgfgiehiiegeefiehfeiffggfiehfghiigh
reifehhiheeeeeffgiiiggfiegfihhhfhgeefheiigffhhggiihffihghfhfffhehhgfhghigifgieiiiggfgeeeihief
rigfiehgififeghgggfighgffghgeggffggeggehhfefhehgeffgfhhiehfgffeiheggggehhgihhiehggehgeeehfgfiefgehiigggg
rihegiggfiggiigieehhehfieffghhfgigggfeiefiigehfghgfeggehffeffhieehiieiiieefgheehghiigfihifeeeieei
reiefeiheegeegiigeiefeeegggghgghiihgiiggieggghhghgifeihggeigehefgeiiiffifehfifeifihfhfhgiieigggehhfgeghh
rgffhefehghihfieeegfgeiihgeeiiieighiigigiihgfiehiggiifegefeggfifegfefggfgheegehieehihhiffieigig
rghegehghgehgifghfefeegifhehigggehgiegfhihhhhifhehghhiggiheigehgheghhehiihhihfgeiihiehfehgfeiihgfggfggffef
rghiefefiigghieeefiifhehggeieifffgehheegfigihgfhegifeiiiheehfgfgihhgeeigiffifhgfghehi
riihfehgggghegefgfhfefeffiiigiiffhfghgggifeihgggighiieggfhfeegfffeefgifhghggfeieiifeiehgh
rfgeifhgfieeefhhegehiehiififfihffhggiefgffigegegfeefgeggfheiheefhihggfiegegigihfgeiiefhhfhgi
riegifgghhhffihghefigfhhifgghggihggheiefeegffgeeghfieghfeghhigehfifgehheeghgiiggge
rfigfghhhhheehgiffgifgihhhigeffhehefeegefeffeehfhggiifigehfgeeeeehhgeehfgiegfeei
rgghhfihhgieifhffheihgggghgfigghfihiegghfiffgfgiigeggiiighehgifhifefeigfeeghfeigififefggfeeiihieff
rgfhfihfghiigfehgieefgghihhiieefihiehihghghghhhfghffheiihiieeffiegeehhihhgffef
riefhffhgfigeigfgfhfhefiieghheiigfgeiiefefhegghffiififgffiiigeeffghefhifggh
rigihehgfihiefeegiegegehifihefhhggggggehgeiiieiffgigfieegffgifhihgfeeheifghegefhggghheefffehghg
rgheieigigiighiehhefhhfifigiggifiggighhfeghieiihhiffeigffeeegeghifigigeiihhfhighfeffeii
rffgheiehhheeggfhifhgfeiihehigieheifehieigefgeigifhfgehihhgigfighfeefieeihghhfgiiggigeheegigefihiee
refgfgeegeheihggggiggeiiiigfiffififigiiiihffhieeffgefffhghihigghfeghfiefifiggf
riegfhfiiihehfieeiheiigeieigffggeifhggiifgifeeheegeffifgigfghhieefegeihihgghefhgee
rhhefgfhhihieeihghifgeffgihhieeiehffeeffiieffiehgffifghehffiiffigghgiiehfegiiihgeihhiheiefiiheeei
rhiieeihefgegeiigiifheehffiififhefiehhhegegihfiefhhihhieehfhihhif
rgifhifegffeiggeheffegheggfggiheiefgiigheehehegfgfihhehhgfgihefgegigfheihiihfhiiiigefghhfeiigefh
rigggggfehgiefefefegggggeihigegeifgihfeieeegfghhiefhieheefiggiihehiiieeieghhihfehiihe
rgeeefgieheffigefighfefgfehifiifhihhfgeheefhihihihfeehefehhfiihgihggfgghiigfihiifefh
refgefegeiggeggihfgifhfggffhifegihiiefhehgeeegeeeiffgihfeieihgiieeeegihghhghgifghgiggiigffi
rfhheheefgfifegiefhhhififefgighhhhhegigehiiefhfhiiiihefeggiffhgffef
refeggffigfeheiggeieghifieifhhifegfhihfhghhgeefieeighhheeeheeifggeehhiiggieiififihhiiiiffegfi
rehhefgeehhighhiigeehieiefgffigfggfghhheffiffeeggehgfhfffigheffgfggihggiefe
rffeefhhhihghehehhifheheffiehiiegghghfhigfheffffiggiiffgiehifgeefhhe
rfffhgiifggghfehehiiigiihhiieiiggehgiifgfeeifgiheieifiefhieheieifeghfeegfghiihef
rieheihhgeiggeigiifigfffiieieeiifigfeefegggeeiiieeehffifgfgehfiighgghighfghffggfigieffhegegf
rffgeieheieheihiegfiffehifgffgiifeffgfiiegihhiiifehi
rhhgggiihihgeehhigeeiiiigehffifeighgiihihhhehfieeieehg
rieghifigfhifgefeifhggifhihgfhgeeihehiffgfgiihgfiegigfegghieihffhihhei
rfgefhffghehefghfeegfeheffegieghigeeegfeghhieeghgigifgfhhh
rggeggiihffgiffhieeggeffeegghgfhgeiihehhgieffffghffeihhiegfigigiehhhi
rhhfgegehiefgfhfifgeeiigehheifehihfiheffffifhgigegifheeh
rfifegfeigfhghffehehhhggeigfigihhhfeegeifhiiiheifgifgfhhhgfggegg
rhhhfheeiigeeegfheefgffgiiighifehehfhffigeeggihgihhiiefffeeigf
rigfehfffhegegiieiiegefghgefgihffeihhffiifhi
reeeeiigffhfefhfehifffhiiigeehffhffeehghigffeegfehi
rffigghihegihggeggefgfhihiiggihhgihighhgfghiiefhififeigehhiggghfiheffhe
rgehifeeiiihgihefhhehhhfiiiggggggegffgfffefhffeggf
rheihhegigffghhgeihghfeheegfffhiiehieehieihgiffihihfhefhfhf
rieeefgehhehighgfgfgiiiieggfghghiieiehieh
rfiiigggfheggiiihfgefihghiffigfgeeffieiheieiefhhghhhghehghffgg
reheiiiihgeiefifeifeiighggeehiehihhhgiehigifhigeee
reegehigefhifhfiffigfifehgiigfggggiggefigffeigegefeigfigi
reifgfeieehgeihifieghgeieehgfgfghghehifefighehhhghffefeghhfiggg
rgegiehefffeeghhgfhhiefigiiefhghfigeefhhgfeieiihggffi
reghifheiheggheifeghfhhgigefghihhfgeieghhhhhfhgihggfgghhge
rffieiihfigiggigegehgihfheefehefifgfehiihfhghifig
rfifeeihgifgihehigfgfefffiefhfggiieiififehefffi
rhhgefgfihgfgggighhgigfiefifhggiegggffhegggief
rhggifffggiffefiigfhfiihigegfiiiiffhihgiefgihhhi
rgfgigiigfiiiehhffeeghihegeigeifhfeieih
rggihfihegfgiighggeeggehehfhigggiehehihegegfiiehighh
rgifiihgfeehfgifghghegeghgiffhgieheeie
rgegifihegfhiifhfefhieigghegfg
rfffgfhhgfeiihfeiigfheeegeiggfhiggef
reefggffhgiihffefhefegeeihheeghigheigg
rhfiiegefiffeiiiiifgifegiifhfhehhfighiefhhhehggi
rfhggiiffehffhhgfgheegeghfgeiighgggighhehffgf
riiifgiiggheeegifgihiiihgghhefefhfgihgeefhgfh
regighifgfgghegfgiieegfhfifig
rheheigigifgeeieehfighfgeee
rhihgfgifihiigegiegegghiigieife
rgiiehhigiigehfeefgghefif
refehhfhegegehgiiffgfiifegeiifeeifg
rgiegfggiigfhiiffgeehhgeihhihgeg
rfggihffiefgeefffhifhgfefiieefgghf
rgigheffhifhghihghfifggghigihgieihiifeei
rigegefgiiheggieehighfhegiigeeiff
rffehhggihiighiefeiggggffgehge
reefhheheiheiihihhhegeifgfe
rifhhhefefigiihiegheghheiggheife
riefihfeeiigiifefeffiiffeehfehihiiie
regfegeehfheiefgehhheegffgfi
rhgehggihfghieheehhiefhighfe
rfehghfghhgefhifhiiefehfegf
riffgfegeggfghiihhggfgh
rhgghhhhgfehggfggfgfiiifhifehg
rhiegfegffigfifeffiihffgggeie
rggggheeigiehiifhfifghf
refgiiffefhiehhg
rhgegeehiiieheifhfee
reihffigegehiehfieihi
reighiffhhfeegfgegifiif
rfffiefehfeiehihgif
refgegfeeghfh
regifiieieheihehfii
reehieeegggffefhiiihii
rhgfhgfhifeihhh
reeegegefiffh
rhfhigiihiffigiih
rgifiehgge
rihifiifeeeiif
rgehii
rgeffeeiig
rhhihhgef
rifgffi
rfgfhgf
riieeef
52 27
78 386 111 67 581 23 600 176 321 404 263 540 356 9 142 331 566 49 241 325 155 71 278 585 97 485 601 402 66 460 316 551 567 135 120 616 517 70 30 298 232 218 563 462 173 226 212 209 251 518 149 103 
40 16
524 90 178 511 550 121 297 396 38 406 7 133 380 86 16 480 356 489 549 595 390 543 455 215 76 504 449 40 546 360 21 207 334 272 394 147 508 332 532 261 
47 8
284 472 530 488 192 593 373 14 413 449 614 612 144 305 358 408 603 97 132 62 165 421 443 145 520 312 546 35 101 550 314 349 248 352 16 342 38 214 163 135 208 364 273 207 526 133 432 
41 16
205 61 90 447 11 216 411 277 389 206 248 485 370 234 62 304 45 264 99 265 307 98 193 105 84 296 543 499 360 305 19 201 233 416 137 268 47 492 222 508 39 
27 21
201 370 153 235 519 535 450 616 281 508 246 530 314 178 11 520 466 461 211 502 581 336 346 87 207 472 451 
43 21
482 366 359 316 185 390 396 223 464 210 486 578 306 383 609 562 423 12 97 244 292 278 226 216 82 265 454 555 325 512 545 605 250 158 183 493 453 42 248 449 466 558 1 
35 30
83 597 331 11 437 105 99 482 266 231 370 179 293 380 171 256 590 606 215 135 511 201 587 250 217 14 532 521 540 453 71 175 305 539 31 
47 37
593 131 418 74 106 507 88 57 130 267 178 491 395 386 504 485 546 393 193 223 127 167 95 512 576 532 525 501 571 609 60 610 493 432 461 247 587 31 7 468 187 515 520 454 275 208 221 
46 25
415 186 18 330 190 242 603 466 137 460 365 331 476 414 49 600 212 565 399 606 509 419 488 494 393 310 245 317 162 429 206 548 523 181 465 438 615 170 475 458 324 64 199 302 359 174 
38 36
512 257 484 126 399 100 444 570 234 522 61 553 146 438 585 373 37 19 369 199 320 418 159 440 98 13 483 478 533 73 86 168 104 327 400 359 595 189 
31 22
134 220 485 332 176 612 551 257 544 84 476 12 595 339 514 603 30 25 515 18 465 169 185 395 580 2 495 56 321 65 516 
22 11
507 39 609 543 236 432 270 134 526 242 385 500 559 229 218 7 429 511 535 257 492 214 
28 23
319 89 511 11 597 399 148 198 361 214 376 535 95 194 352 529 475 394 498 403 24 483 356 410 59 592 71 73 
29 15
224 447 326 163 331 341 56 566 155 538 76 243 220 586 33 184 381 480 7 443 364 547 609 526 71 43 241 370 142 
29 9
39 105 390 488 206 185 317 363 65 144 139 523 333 476 440 261 479 17 337 366 136 8 172 60 618 412 82 90 141 
22 21
593 360 250 537 207 388 598 308 270 607 227 398 109 434 198 303 79 54 119 330 545 572 
33 11
67 459 615 571 251 558 303 330 116 137 379 112 529 224 75 250 510 403 396 514 423 519 572 538 383 27 229 53 466 432 211 486 80 
12 9
443 546 538 380 160 233 143 536 167 525 550 366 
29 28
304 400 554 514 242 421 244 273 416 270 237 348 20 108 241 346 449 412 404 102 80 287 96 343 387 165 588 350 100 
26 15
225 513 548 257 379 82 347 442 532 273 602 126 557 559 528 439 35 357 106 210 507 261 98 68 247 295 
18 13
407 238 160 486 534 431 598 589 73 571 120 587 559 359 600 514 30 483 
24 18
116 421 416 92 291 214 110 328 493 564 476 404 210 89 543 619 553 75 67 39 24 136 448 69 
17 4
286 108 162 339 490 279 367 605 343 13 218 429 126 312 308 170 426 
23 5
190 135 417 197 133 335 263 441 451 613 492 410 151 363 382 79 70 142 46 82 316 154 273 
24 14
352 521 473 183 112 124 54 249 9 425 223 448 360 573 89 335 278 97 92 541 489 380 4 104 
16 7
309 227 249 280 35 169 297 454 202 343 5 130 287 184 302 604 
11 3
228 296 311 334 140 90 507 240 369 133 558 
17 1
517 33 606 570 375 338 464 164 6 301 361 365 21 397 416 34 308 
18 9
272 571 195 183 352 317 534 354 187 316 592 461 606 43 206 300 487 415 
14 11
235 497 526 565 619 32 340 522 76 155 457 344 586 321 
24 17
241 248 235 472 272 279 494 495 320 615 544 119 280 160 584 430 310 602 67 58 164 75 549 413 
19 15
542 287 362 363 550 404 569 456 471 219 9 311 451 320 412 449 90 153 245 
13 6
316 34 49 272 526 123 392 418 440 109 438 396 519 
16 12
105 375 72 558 201 433 389 538 112 611 158 470 60 324 486 51 
9 3
572 360 566 23 54 472 14 148 35 
7 5
502 230 397 180 327 301 558 
6 4
277 118 188 362 427 416 
10 9
407 594 267 287 282 615 228 124 309 438 
5 5
259 366 416 395 489 
11 8
75 196 514 99 319 388 69 29 205 543 460 
6 3
108 59 219 536 1 463 
7 4
76 342 44 571 457 63 120 
3 2
8 44 254 
3 2
365 457 230 
2 2
96 201 
