99 5
68 61
14 46
52 19
51 95
17 57
34 62
45 78
75 50
36 12
32 80
39 15
1 72
2 44
53 56
46 36
11 51
55 86
52 87
15 91
67 58
28 4
1 36
32 22
56 87
18 66
22 78
35 96
76 30
88 19
38 53
98 41
16 45
70 1
45 3
97 81
74 6
36 54
28 87
13 99
77 8
69 82
46 20
75 53
94 14
16 10
24 2
83 4
64 40
90 36
6 70
33 3
3 69
7 52
87 11
77 57
28 42
81 38
86 7
29 42
83 76
18 38
97 60
79 42
58 49
63 52
43 42
15 9
9 34
1 84
37 15
56 93
17 89
84 21
57 23
96 84
9 2
65 86
87 25
49 56
6 5
38 41
27 90
59 69
40 2
47 63
7 92
85 96
66 73
51 13
61 77
56 57
52 9
71 41
53 26
11 45
48 85
56 70
44 31
