2000 1999
558 1375
200 985
1497 1879
384 1188
1164 1360
773 1827
1564 1777
315 875
418 1772
99 1113
57 1432
1239 1892
1134 1482
136 1439
945 1723
818 1808
383 1925
633 639
942 1072
406 1292
619 639
1628 1847
673 1242
360 1965
651 1866
953 978
90 1858
1595 1783
843 1109
140 1564
205 1695
129 1791
137 1275
203 355
808 1663
1720 1880
1003 1604
235 529
221 876
202 478
549 1028
513 1271
155 634
1171 1939
370 1734
1166 1795
1089 1838
121 1193
104 1686
451 1148
881 1290
108 1519
587 1519
1526 1990
631 1293
207 1811
218 482
271 1711
579 980
664 1114
286 1996
753 1487
8 1878
102 430
194 378
267 501
58 451
1363 1955
342 1969
106 1673
743 1294
339 386
321 863
398 686
26 623
1797 1912
403 1723
93 1563
857 903
1024 1966
156 1820
518 1924
683 1269
268 272
707 1618
325 627
131 847
145 1714
1438 1996
62 1308
148 1401
286 1438
1330 1905
60 1199
396 444
1252 1279
213 671
1448 1750
527 1575
287 1274
1275 1481
1178 1410
1175 1401
285 750
1464 1926
757 1032
849 1423
377 1676
105 227
1314 1780
178 1431
115 172
1422 1947
94 614
1544 1600
1286 1325
576 1863
1115 1998
210 1483
1565 1835
256 1429
1561 1845
306 1896
112 1819
96 665
1622 1986
1107 1346
176 1912
1342 1982
335 713
934 1710
598 774
974 1316
996 1518
493 1317
1522 1911
1671 1687
733 1826
457 751
507 539
404 1871
1624 1800
158 1640
1712 1981
209 484
140 1777
804 1177
282 717
755 1563
1025 1313
568 1949
481 1522
766 1187
618 870
1130 1150
1091 1095
516 1273
67 1635
37 1738
254 1180
1361 1403
187 1710
888 992
1695 1771
407 1473
816 1455
114 436
248 577
335 861
31 1540
295 427
380 1338
1395 1893
1172 1648
841 1016
413 1405
27 916
554 1805
16 110
626 1407
728 1037
392 1233
1277 1684
208 483
358 532
352 578
759 856
292 1638
366 1098
148 1175
685 812
233 880
1440 1988
84 950
1196 1924
59 596
742 1371
345 1190
604 1199
487 1492
916 921
673 1461
1523 1868
1093 1204
601 1054
281 1537
876 1213
403 945
416 1526
1212 1538
622 692
1202 1205
1602 1891
661 1110
595 1517
30 697
1106 1476
89 1034
318 1566
830 1373
606 1726
929 1018
1462 1704
913 1716
1859 1979
440 1932
867 1532
51 1419
996 1141
67 656
211 349
566 845
387 998
832 1632
483 1203
454 1493
1477 1885
644 796
1184 1399
890 1494
1495 1748
1586 1839
1551 1636
14 454
353 1368
767 841
1214 1421
479 1535
379 1236
1078 1931
1009 1249
1503 1639
165 1873
584 1390
1066 1470
185 1529
1527 1689
997 1541
1769 1984
469 1364
21 1915
152 1739
376 552
663 1207
314 1706
13 1640
1033 1655
500 1907
922 1068
591 1022
472 1155
1206 1479
359 1024
787 1941
32 471
1541 1957
1623 1930
388 1117
872 1471
354 1497
351 1745
287 305
255 1648
1185 1334
343 1553
23 429
1341 1798
1672 1762
644 1702
1631 1844
310 1265
222 450
210 1802
760 1653
695 869
1002 1884
535 1047
649 654
1488 1818
394 1420
438 1881
305 1274
10 179
616 1439
1451 1688
1674 1703
453 1840
1680 1999
476 1149
534 1688
157 866
656 1635
1047 1194
404 1210
681 1312
998 1428
20 817
333 1247
1760 1774
804 1217
480 824
641 1208
246 1546
248 1812
419 1250
98 947
1018 1192
800 1387
9 544
1098 1958
562 1512
912 1189
1767 1892
657 846
723 1310
1116 1795
1238 1950
243 1620
726 1847
1470 1661
24 31
800 1629
53 1398
767 1016
797 1498
336 1656
263 1634
614 1882
472 1614
297 503
249 1004
534 1451
642 1327
637 1363
462 866
1278 1303
424 1117
151 1822
1078 1298
540 1613
83 1338
133 936
828 1259
680 1366
632 1850
357 1094
419 1436
958 1228
207 653
266 533
185 1511
221 1213
214 1267
654 793
868 1786
672 759
436 611
740 1382
190 888
279 850
439 1013
46 1258
279 1683
350 1234
679 1415
108 587
885 1890
581 959
391 1032
753 1165
382 852
1551 1793
635 1398
904 1475
1258 1418
563 1865
677 1560
130 1981
1058 1748
283 1010
645 790
43 620
1201 1296
492 1941
197 1311
909 1321
12 423
1167 1559
369 884
1170 1791
835 1887
400 1591
646 1236
41 1019
176 1797
1625 1894
1319 1714
941 1696
1058 1495
270 768
146 1593
1116 1166
676 1902
211 883
247 439
893 1076
1141 1518
113 182
962 1265
585 952
198 1486
1286 1379
402 1341
487 1126
118 953
223 530
37 975
1642 1963
497 801
39 72
1285 1393
494 586
414 827
127 1278
79 322
1144 1877
506 1709
746 948
991 1543
590 1733
331 1598
742 1263
1744 1825
1580 1605
115 1505
526 592
1804 1854
101 777
135 1183
1048 1097
461 1899
1268 1666
370 918
362 1025
1008 1668
237 1707
288 1243
1288 1835
182 1145
358 1933
61 1041
18 1149
478 901
879 1822
33 256
124 1224
1232 1662
54 356
173 1256
545 1460
1761 1849
64 1001
976 1103
53 635
455 1109
610 1441
799 990
1387 1629
956 1359
35 86
509 1916
205 1771
702 763
1594 1616
1378 1932
719 1682
461 515
474 1650
909 971
303 558
164 821
524 705
780 1631
1253 1333
421 1952
1580 1755
1077 1982
1425 1917
1162 1726
808 1137
825 1815
926 1353
55 511
58 1148
49 1437
218 905
178 1997
915 1427
1233 1830
737 1356
1064 1472
727 1903
629 1905
820 1943
34 123
224 711
574 734
257 1283
1168 1318
235 1934
361 1453
71 613
495 860
1231 1502
467 1936
1092 1326
1446 1556
775 1613
1244 1515
1464 1568
922 1127
449 782
1488 1531
280 405
68 1055
982 1687
585 789
1070 1579
401 1232
17 1938
154 1667
113 1145
520 960
1601 1753
193 496
692 1644
1546 1757
367 815
44 1992
1339 1668
473 506
447 1498
1801 1992
120 1983
991 1652
111 852
794 809
303 1375
691 1607
357 1864
269 1267
647 1183
460 470
547 1927
515 1899
129 1170
119 615
1605 1755
823 1664
195 1610
563 638
935 1133
45 893
564 1120
1442 1469
1179 1587
924 1017
317 860
699 1392
1207 1218
756 1515
754 1976
219 1231
312 431
236 275
554 1043
536 1721
1255 1370
1478 1968
886 1825
507 1100
120 700
422 1768
1485 1959
598 813
688 1475
505 1400
294 857
514 763
1433 1778
957 1310
338 1589
594 1323
1729 1799
215 1365
811 1417
70 415
123 1042
855 913
252 1676
542 1364
177 1718
1351 1460
309 1786
8 1994
979 1769
239 1977
76 1377
1159 1212
296 746
1552 1772
61 662
252 377
933 1154
453 897
1171 1237
972 1944
54 1140
1186 1567
446 801
1967 1999
28 1215
1276 1402
34 1042
170 878
83 380
1061 1720
744 1104
1384 1574
11 156
125 1426
777 1833
547 1309
1245 1266
68 1832
769 1900
1214 1322
416 1990
648 1900
1792 1988
180 290
869 1389
783 1184
1132 1335
602 1146
1150 1853
486 867
715 805
517 1885
1 74
1590 1807
1765 1935
258 1733
630 944
1040 1903
588 1952
546 1146
1063 1209
500 1105
141 1147
494 1942
1129 1471
95 1447
430 1914
627 1633
79 966
1158 1601
165 670
840 1240
999 1821
23 1776
610 1530
703 1211
1524 1881
1093 1861
561 854
66 1301
1081 1182
1023 1549
231 1758
1054 1337
342 949
1240 1889
392 1830
240 1758
887 1434
548 1486
378 1197
124 1456
78 435
196 634
1346 1970
228 1253
92 199
667 1466
78 741
489 632
163 730
59 895
233 963
1509 1578
1043 1805
84 1937
477 1691
9 1272
346 837
1482 1763
576 1430
25 1521
1009 1056
1057 1096
1000 1754
1506 1713
878 1350
474 1647
125 776
155 196
466 1536
247 1013
1670 1679
510 983
1152 1740
902 1570
1347 1592
276 1373
340 1028
1092 1539
1295 1577
341 1874
338 786
1483 1802
194 1197
923 1918
977 1434
92 573
1224 1456
1060 1690
134 1221
87 911
1857 1964
826 1692
569 1555
204 795
463 569
949 1969
86 1645
399 1985
271 954
149 924
1087 1176
369 390
664 1227
658 682
405 1465
678 1403
1045 1946
919 1562
1693 1826
1035 1356
649 793
475 1104
267 456
539 1100
128 1084
10 347
575 699
589 1855
1106 1220
1643 1919
220 844
643 1086
42 986
442 1682
1239 1767
907 1715
300 1918
320 1836
496 1454
173 567
432 1294
672 856
14 1493
50 1317
239 1513
228 1333
938 1062
1210 1871
1135 1870
167 1447
707 848
553 1675
917 930
1177 1217
1260 1331
259 1157
469 542
1448 1491
935 1044
1006 1463
232 395
518 1196
600 1396
1063 1069
557 1280
1094 1864
400 1803
138 1689
143 328
791 1020
48 1222
142 1383
492 787
693 1659
161 420
160 1122
255 1172
508 1029
1130 1853
502 609
749 1112
402 1798
270 984
15 1281
168 1548
993 1247
74 410
1719 1815
512 1343
203 943
214 269
204 1528
289 1285
100 815
937 951
715 1558
900 1200
423 1617
320 1747
66 284
4 1340
887 977
783 1399
666 766
874 1883
1866 1922
412 749
802 1279
1435 1535
970 1768
201 1388
1307 1906
1096 1697
101 1833
837 1257
122 1725
296 948
694 1307
714 873
82 471
1137 1663
503 1626
810 1621
1721 1862
545 1351
1031 1469
353 1099
678 1361
202 901
117 1419
1200 1641
596 895
327 835
670 1873
1015 1422
1785 1909
284 1301
713 861
1223 1946
489 1850
621 1764
584 1496
564 1501
63 1664
1354 1670
1204 1861
19 1834
385 645
1901 1944
385 790
829 877
570 1953
251 906
1397 1722
514 702
968 1604
408 1545
446 497
387 1428
1030 1048
816 862
199 573
3 1023
56 171
153 1562
1068 1127
637 1955
700 1983
1409 1639
308 592
304 819
189 1395
330 1480
72 319
175 881
109 313
99 1367
1588 1782
511 955
1397 1794
544 1272
127 1303
1560 1685
1176 1571
1121 1616
479 1435
872 1129
512 1869
779 781
617 1968
1309 1927
159 792
488 1759
1114 1227
93 755
1491 1750
344 395
150 1167
1520 1948
885 1788
181 976
1511 1529
244 1459
1582 1623
1155 1614
103 1909
1125 1345
1121 1594
350 1806
1295 1978
669 1611
1163 1690
188 1241
29 556
1609 1621
519 851
605 1557
33 1429
624 703
551 1954
1005 1411
274 1959
523 807
1722 1794
764 1895
7 230
1358 1415
444 1897
1242 1461
607 771
1001 1852
971 1321
311 593
150 1559
189 1893
463 1555
508 1304
1867 2000
426 1453
276 830
106 931
1510 1743
562 1708
468 1012
1101 1355
1113 1367
510 608
226 519
242 557
465 1506
1230 1998
415 1973
1316 1908
1520 1956
809 1658
215 1993
1051 1521
981 1898
154 1468
1241 1651
999 1995
258 590
1153 1739
1152 1831
1452 1547
824 1344
157 462
772 842
21 1732
896 1021
660 958
366 1958
1698 1778
1348 1819
1821 1995
1416 1842
1467 1987
1 410
128 1554
1036 1086
735 1884
1061 1880
994 1653
662 1041
1516 1943
365 1007
291 1851
505 1728
848 1073
779 882
371 631
172 1505
782 1151
770 1427
1181 1921
608 983
455 843
1268 1756
618 908
1065 1323
528 1353
847 1775
1039 1420
728 1742
80 406
1507 1585
559 1584
85 1735
348 1731
540 775
683 1699
706 1940
70 1973
1619 1883
606 1162
985 1665
629 1330
1550 1766
242 1280
1120 1501
1315 1841
459 1954
967 1160
1508 1764
727 1040
225 1945
138 1527
1606 1675
862 1455
36 411
1308 1406
1550 1779
1948 1956
910 1566
81 285
11 1820
731 1384
877 1596
1463 1649
655 1391
145 1319
1405 1837
232 344
1027 1276
19 1108
326 1296
736 1704
1030 1097
432 743
40 1592
244 798
620 1490
38 671
1700 1894
17 831
263 490
988 1369
521 1264
348 1860
561 1630
687 1173
141 668
932 1297
1608 1828
1646 1872
1480 1572
716 1226
147 1846
891 1243
820 1516
175 1290
712 1799
619 633
733 1693
114 611
1343 1869
146 839
372 687
35 1645
169 930
1115 1230
1512 1708
1189 1251
899 1327
147 1681
674 1225
577 1812
874 1619
1248 1678
642 899
170 1350
570 814
574 738
418 1552
300 923
3 1549
1038 1612
1394 1838
805 1558
331 1790
1174 1843
198 548
122 217
261 864
77 229
1424 1622
658 1413
326 1201
722 1385
1107 1970
299 1360
666 1187
665 704
1409 1503
112 1348
1374 1537
1160 1751
473 1709
184 343
1746 1950
171 337
1273 1980
748 1800
712 1729
894 1484
1288 1565
57 1534
301 661
13 158
282 1289
796 1702
814 1953
184 1553
5 384
236 1102
1444 1707
1788 1890
447 797
1085 1181
580 1669
482 905
241 873
1414 1810
762 1743
1044 1133
546 602
802 1252
640 1581
617 1478
811 1046
906 1694
323 334
87 946
762 1510
1514 1677
292 1657
457 1920
97 441
1598 1790
1014 1839
73 220
583 676
1026 1336
1547 1789
928 1858
776 1426
659 1703
1118 1584
524 1499
43 1490
151 879
311 833
1715 1752
64 1852
6 1654
456 501
134 724
556 565
1060 1163
75 1019
413 1837
907 1752
798 1459
241 714
528 926
931 1673
480 1344
822 1507
110 186
1064 1156
1610 1923
38 213
1612 1951
553 1606
1261 1672
27 921
365 961
1365 1993
22 98
368 711
429 1776
622 1644
575 1392
643 1036
433 1692
1226 1525
137 1481
231 240
708 1021
187 934
1119 1796
362 1313
1390 1496
1306 1329
421 588
735 1002
1050 1916
183 427
163 1408
259 803
1264 1773
51 117
340 549
162 538
810 1609
1270 1696
464 1335
381 845
1388 1576
1237 1939
600 1246
1062 1328
288 891
578 1875
1282 1646
1038 1951
940 1904
636 1324
278 636
291 927
552 628
121 277
1089 1394
1766 1779
525 1091
925 1896
414 1888
339 1504
836 1829
488 1749
6 1599
253 1804
468 560
567 1256
412 1112
723 957
177 989
938 1328
411 747
1136 1139
710 1215
328 374
1168 1816
1386 1868
257 650
190 992
278 1324
799 1962
1034 1627
988 1235
119 1080
536 1862
668 1147
707 1073
950 1937
1220 1476
858 1410
1159 1538
346 1257
132 1067
698 1701
982 1671
886 1744
502 1770
212 1579
1079 1842
81 750
1088 1198
1859 1961
445 1575
1437 1971
1458 1741
1262 1590
780 1844
274 1485
1190 1817
684 1724
197 1376
778 1180
317 495
1229 1643
329 613
161 245
448 937
80 1292
1331 1500
603 607
301 1110
1084 1554
94 1882
752 1391
1282 1872
222 1059
961 1007
594 1065
298 817
330 1572
355 943
280 1465
758 1380
238 765
445 527
1158 1753
1867 1960
225 1216
1298 1931
1325 1379
304 1320
250 460
980 1975
361 426
1445 1964
491 875
376 628
504 964
85 914
18 476
533 1637
756 1244
1430 1863
28 710
900 1641
933 1569
768 984
95 167
1229 1919
1425 1974
892 965
144 1761
434 550
706 721
265 1075
166 1561
806 1581
812 1284
1143 1741
394 1039
174 1205
690 1925
825 1719
1450 1484
1011 1467
336 1372
597 1122
309 868
50 493
191 842
310 962
201 1576
486 1532
333 993
730 1408
918 1734
76 1457
315 491
253 1854
15 675
571 1824
726 1628
391 757
1372 1656
609 1770
537 1355
964 1787
55 955
249 1876
1591 1803
1119 1362
927 1851
912 1251
100 367
437 1557
47 571
126 1809
354 1879
107 313
1031 1442
206 1827
379 646
859 1489
1366 1542
1314 1332
721 1940
428 791
1731 1860
902 1972
216 1287
517 1477
717 1289
521 1773
1169 1544
216 701
217 1725
168 393
71 329
262 290
652 1297
1087 1571
1305 1724
1185 1814
1452 1789
62 1406
341 987
1235 1369
390 884
166 1845
417 1632
669 889
42 1195
1136 1300
725 1578
789 952
532 1933
45 1076
297 1626
1424 1986
25 1051
1440 1792
381 566
840 1889
466 1781
1128 1357
648 769
680 1542
1412 1809
438 1524
582 1678
990 1962
1570 1972
1655 1848
375 630
363 1686
1533 1841
1647 1650
1074 1810
1432 1534
581 709
265 425
139 995
956 1737
481 1911
1250 1436
183 295
625 1677
1234 1806
56 337
7 1142
88 1449
724 1221
254 778
739 1588
397 1765
208 1203
111 382
2 1466
1311 1376
1046 1417
803 1157
559 1118
822 1585
1105 1907
850 1683
1029 1304
1165 1487
1404 1602
22 947
60 604
162 973
105 1856
345 1817
1269 1699
39 319
865 1259
324 1383
720 1545
541 1829
748 1624
1400 1728
774 813
523 1111
452 1730
359 1966
516 1980
640 806
593 833
1191 1473
1917 1974
435 741
1154 1569
795 1528
1099 1368
116 892
586 1942
237 1444
180 262
681 696
1960 2000
1322 1421
314 1618
920 1340
663 1218
1261 1762
967 1751
941 1270
1332 1780
388 424
195 1923
709 959
116 965
431 761
626 729
550 1660
442 719
568 834
386 1504
118 978
1004 1876
448 951
188 1651
1262 1807
858 1178
1386 1523
995 1823
318 910
770 915
1359 1737
1134 1763
807 1111
1128 1443
657 1090
373 745
1219 1730
1074 1414
209 1603
302 334
677 1685
846 1090
716 1525
693 1615
230 1142
972 1901
1014 1586
1066 1661
734 738
1636 1793
739 1782
96 704
90 928
126 1412
409 1370
229 332
299 1164
819 1320
149 1017
1666 1756
164 1352
760 994
1474 1701
63 823
351 788
1362 1796
1056 1249
651 1922
1008 1339
1318 1816
1138 1198
103 1785
583 1902
458 740
1169 1600
784 960
870 908
1088 1138
595 1929
139 1823
828 865
1404 1891
1573 1989
1445 1857
880 963
364 1855
136 616
1517 1929
914 1735
383 690
1961 1979
1489 1727
2 667
1468 1667
12 1617
91 1760
425 1075
91 1774
1749 1759
929 1192
1357 1443
440 1378
316 1052
417 832
1567 1705
408 720
758 1583
889 1611
1513 1977
555 1345
1582 1930
1027 1402
356 1140
261 838
1271 1299
1380 1583
821 1352
855 1716
725 1509
974 1908
936 1291
1377 1457
102 1914
475 744
839 1593
399 1082
200 1665
1206 1910
245 420
443 1135
179 347
939 1556
504 1787
47 1824
251 1694
529 1934
4 920
372 1173
979 1984
689 1005
890 969
1625 1700
765 1124
65 132
543 1329
659 1674
322 966
1006 1649
5 1188
266 1637
246 1757
674 1597
894 1450
871 1245
531 754
441 1302
732 1843
1246 1396
49 1971
689 1411
940 1161
364 589
193 1454
731 1574
52 1936
307 691
1015 1947
107 109
1082 1985
708 896
1878 1994
224 368
1260 1500
675 1281
459 551
268 1813
1336 1736
718 1963
316 853
1186 1705
751 1920
1126 1492
143 374
321 1254
829 1596
1143 1458
997 1957
226 851
458 1382
437 605
1123 1877
192 1277
434 1660
975 1738
422 970
1026 1736
443 1870
1618 1706
942 1053
537 1101
685 1284
219 1502
294 903
349 883
289 1393
827 1888
781 882
968 1003
1326 1539
1740 1831
46 1418
1216 1945
264 1010
360 1928
327 1887
142 324
788 1745
818 1049
1349 1608
277 1193
352 1875
745 1381
1208 1717
1354 1679
697 1784
433 826
531 1976
1161 1904
1055 1832
490 1634
293 1691
1615 1659
325 1633
16 186
582 1248
273 1000
272 1813
688 904
1071 1423
465 1713
306 925
144 1849
624 1211
650 1283
696 1312
1315 1533
69 591
897 1840
1069 1209
260 398
1568 1926
227 1856
580 612
969 1494
65 1067
73 844
1225 1597
308 526
389 1179
853 1052
77 332
1928 1965
191 772
206 773
169 917
1156 1472
428 1020
641 1717
1045 1223
97 1302
939 1446
684 1305
612 1669
485 792
1441 1530
1577 1978
736 1462
393 1548
871 1266
449 1151
660 1228
1543 1652
69 1022
312 761
1108 1834
273 1754
243 499
29 565
174 1202
52 467
538 973
44 1801
396 1897
1131 1895
989 1718
831 1938
260 686
159 485
1747 1836
535 1194
41 75
130 1712
499 1620
652 932
1334 1814
785 1595
89 1627
705 1499
522 1182
1139 1300
498 1573
135 647
621 1508
281 1374
638 1865
1057 1697
695 1389
615 1080
498 1989
722 1083
572 1222
560 1012
1479 1910
264 283
541 836
152 1153
24 1540
785 1783
1053 1072
371 1293
737 1035
48 572
1433 1698
131 1775
986 1195
543 1306
682 1413
1449 1991
838 864
1680 1967
375 944
40 1347
373 1381
1123 1144
859 1727
701 1287
20 298
36 747
160 597
1079 1416
679 1358
302 323
1732 1915
192 1684
981 1886
1638 1657
450 1059
1263 1371
1886 1898
834 1949
698 1474
1049 1808
250 470
30 1784
397 1935
513 1299
212 1070
234 623
307 1607
1531 1818
32 82
238 1124
389 1587
223 1913
579 1975
863 1254
732 1174
694 1906
653 1811
464 1132
1033 1848
718 1642
88 1991
1431 1997
1349 1828
601 1337
452 1219
1536 1781
954 1711
1599 1654
1085 1921
1238 1746
275 1102
987 1874
26 234
401 1662
655 752
1681 1846
911 946
786 1589
854 1630
1083 1385
104 363
603 771
764 1131
407 1191
555 1125
1037 1742
1011 1987
153 919
729 1407
409 1255
625 1514
509 1050
133 1291
522 1081
520 784
530 1913
484 1603
181 1103
293 477
849 1071
794 1658
1077 1342
525 1095
